*SPEF "ieee 1481-1999"
*DESIGN "openframe_project_wrapper"
*DATE "11:25:16 Thursday September 24, 2026"
*VENDOR "The OpenROAD Project"
*PROGRAM "OpenROAD"
*VERSION "dcf36133a369abc8f3c5e5738cd4d82e4903c0e0"
*DESIGN_FLOW "NAME_SCOPE LOCAL" "PIN_CAP NONE"
*DIVIDER /
*DELIMITER :
*BUS_DELIMITER []
*T_UNIT 1 NS
*C_UNIT 1 PF
*R_UNIT 1 OHM
*L_UNIT 1 HENRY

*NAME_MAP
*1 analog_io[0]
*2 analog_io[10]
*3 analog_io[11]
*4 analog_io[12]
*5 analog_io[13]
*6 analog_io[14]
*7 analog_io[15]
*8 analog_io[16]
*9 analog_io[17]
*10 analog_io[18]
*11 analog_io[19]
*12 analog_io[1]
*13 analog_io[20]
*14 analog_io[21]
*15 analog_io[22]
*16 analog_io[23]
*17 analog_io[24]
*18 analog_io[25]
*19 analog_io[26]
*20 analog_io[27]
*21 analog_io[28]
*22 analog_io[29]
*23 analog_io[2]
*24 analog_io[30]
*25 analog_io[31]
*26 analog_io[32]
*27 analog_io[33]
*28 analog_io[34]
*29 analog_io[35]
*30 analog_io[36]
*31 analog_io[37]
*32 analog_io[38]
*33 analog_io[39]
*34 analog_io[3]
*35 analog_io[40]
*36 analog_io[41]
*37 analog_io[42]
*38 analog_io[43]
*39 analog_io[4]
*40 analog_io[5]
*41 analog_io[6]
*42 analog_io[7]
*43 analog_io[8]
*44 analog_io[9]
*45 analog_noesd_io[0]
*46 analog_noesd_io[10]
*47 analog_noesd_io[11]
*48 analog_noesd_io[12]
*49 analog_noesd_io[13]
*50 analog_noesd_io[14]
*51 analog_noesd_io[15]
*52 analog_noesd_io[16]
*53 analog_noesd_io[17]
*54 analog_noesd_io[18]
*55 analog_noesd_io[19]
*56 analog_noesd_io[1]
*57 analog_noesd_io[20]
*58 analog_noesd_io[21]
*59 analog_noesd_io[22]
*60 analog_noesd_io[23]
*61 analog_noesd_io[24]
*62 analog_noesd_io[25]
*63 analog_noesd_io[26]
*64 analog_noesd_io[27]
*65 analog_noesd_io[28]
*66 analog_noesd_io[29]
*67 analog_noesd_io[2]
*68 analog_noesd_io[30]
*69 analog_noesd_io[31]
*70 analog_noesd_io[32]
*71 analog_noesd_io[33]
*72 analog_noesd_io[34]
*73 analog_noesd_io[35]
*74 analog_noesd_io[36]
*75 analog_noesd_io[37]
*76 analog_noesd_io[38]
*77 analog_noesd_io[39]
*78 analog_noesd_io[3]
*79 analog_noesd_io[40]
*80 analog_noesd_io[41]
*81 analog_noesd_io[42]
*82 analog_noesd_io[43]
*83 analog_noesd_io[4]
*84 analog_noesd_io[5]
*85 analog_noesd_io[6]
*86 analog_noesd_io[7]
*87 analog_noesd_io[8]
*88 analog_noesd_io[9]
*89 gpio_loopback_zero[0]
*90 gpio_loopback_zero[10]
*91 gpio_loopback_zero[11]
*92 gpio_loopback_zero[12]
*93 gpio_loopback_zero[13]
*94 gpio_loopback_zero[14]
*95 gpio_loopback_zero[15]
*96 gpio_loopback_zero[16]
*97 gpio_loopback_zero[17]
*98 gpio_loopback_zero[18]
*99 gpio_loopback_zero[19]
*100 gpio_loopback_zero[1]
*101 gpio_loopback_zero[20]
*102 gpio_loopback_zero[21]
*103 gpio_loopback_zero[22]
*104 gpio_loopback_zero[23]
*105 gpio_loopback_zero[24]
*106 gpio_loopback_zero[25]
*107 gpio_loopback_zero[26]
*108 gpio_loopback_zero[27]
*109 gpio_loopback_zero[28]
*110 gpio_loopback_zero[29]
*111 gpio_loopback_zero[2]
*112 gpio_loopback_zero[30]
*113 gpio_loopback_zero[31]
*114 gpio_loopback_zero[32]
*115 gpio_loopback_zero[33]
*116 gpio_loopback_zero[34]
*117 gpio_loopback_zero[35]
*118 gpio_loopback_zero[36]
*119 gpio_loopback_zero[37]
*120 gpio_loopback_zero[38]
*121 gpio_loopback_zero[39]
*122 gpio_loopback_zero[3]
*123 gpio_loopback_zero[40]
*124 gpio_loopback_zero[41]
*125 gpio_loopback_zero[42]
*126 gpio_loopback_zero[43]
*127 gpio_loopback_zero[4]
*128 gpio_loopback_zero[5]
*129 gpio_loopback_zero[6]
*130 gpio_loopback_zero[7]
*131 gpio_loopback_zero[8]
*132 gpio_loopback_zero[9]
*133 gpio_loopback_one[0]
*134 gpio_loopback_one[1]
*135 gpio_loopback_one[10]
*136 gpio_loopback_one[11]
*137 gpio_loopback_one[12]
*138 gpio_loopback_one[2]
*139 gpio_loopback_one[3]
*140 gpio_loopback_one[4]
*141 gpio_loopback_one[5]
*142 gpio_loopback_one[6]
*143 gpio_loopback_one[7]
*144 gpio_loopback_one[8]
*145 gpio_loopback_one[9]
*146 gpio_in[0]
*147 gpio_in[10]
*148 gpio_in[11]
*149 gpio_in[12]
*150 gpio_in[13]
*151 gpio_in[14]
*152 gpio_in[15]
*153 gpio_in[16]
*154 gpio_in[17]
*155 gpio_in[18]
*156 gpio_in[19]
*157 gpio_in[1]
*158 gpio_in[20]
*159 gpio_in[21]
*160 gpio_in[22]
*161 gpio_in[23]
*162 gpio_in[24]
*163 gpio_in[25]
*164 gpio_in[26]
*165 gpio_in[27]
*166 gpio_in[28]
*167 gpio_in[29]
*168 gpio_in[2]
*169 gpio_in[30]
*170 gpio_in[31]
*171 gpio_in[32]
*172 gpio_in[33]
*173 gpio_in[34]
*174 gpio_in[35]
*175 gpio_in[36]
*176 gpio_in[37]
*177 gpio_in[38]
*178 gpio_in[39]
*179 gpio_in[3]
*180 gpio_in[40]
*181 gpio_in[41]
*182 gpio_in[42]
*183 gpio_in[43]
*184 gpio_in[4]
*185 gpio_in[5]
*186 gpio_in[6]
*187 gpio_in[7]
*188 gpio_in[8]
*189 gpio_in[9]
*190 gpio_in_h[0]
*191 gpio_in_h[10]
*192 gpio_in_h[11]
*193 gpio_in_h[12]
*194 gpio_in_h[13]
*195 gpio_in_h[14]
*196 gpio_in_h[15]
*197 gpio_in_h[16]
*198 gpio_in_h[17]
*199 gpio_in_h[18]
*200 gpio_in_h[19]
*201 gpio_in_h[1]
*202 gpio_in_h[20]
*203 gpio_in_h[21]
*204 gpio_in_h[22]
*205 gpio_in_h[23]
*206 gpio_in_h[24]
*207 gpio_in_h[25]
*208 gpio_in_h[26]
*209 gpio_in_h[27]
*210 gpio_in_h[28]
*211 gpio_in_h[29]
*212 gpio_in_h[2]
*213 gpio_in_h[30]
*214 gpio_in_h[31]
*215 gpio_in_h[32]
*216 gpio_in_h[33]
*217 gpio_in_h[34]
*218 gpio_in_h[35]
*219 gpio_in_h[36]
*220 gpio_in_h[37]
*221 gpio_in_h[38]
*222 gpio_in_h[39]
*223 gpio_in_h[3]
*224 gpio_in_h[40]
*225 gpio_in_h[41]
*226 gpio_in_h[42]
*227 gpio_in_h[43]
*228 gpio_in_h[4]
*229 gpio_in_h[5]
*230 gpio_in_h[6]
*231 gpio_in_h[7]
*232 gpio_in_h[8]
*233 gpio_in_h[9]
*234 gpio_loopback_one[13]
*235 gpio_loopback_one[14]
*236 gpio_loopback_one[15]
*237 gpio_loopback_one[16]
*238 gpio_loopback_one[17]
*239 gpio_loopback_one[18]
*240 gpio_loopback_one[19]
*241 gpio_loopback_one[20]
*242 gpio_loopback_one[21]
*243 gpio_loopback_one[22]
*244 gpio_loopback_one[23]
*245 gpio_loopback_one[24]
*246 gpio_loopback_one[25]
*247 gpio_loopback_one[26]
*248 gpio_loopback_one[27]
*249 gpio_loopback_one[28]
*250 gpio_loopback_one[29]
*251 gpio_loopback_one[30]
*252 gpio_loopback_one[31]
*253 gpio_loopback_one[32]
*254 gpio_loopback_one[33]
*255 gpio_loopback_one[34]
*256 gpio_loopback_one[35]
*257 gpio_loopback_one[36]
*258 gpio_loopback_one[37]
*259 gpio_loopback_one[38]
*260 gpio_loopback_one[39]
*261 gpio_loopback_one[40]
*262 gpio_loopback_one[41]
*263 gpio_loopback_one[42]
*264 gpio_loopback_one[43]
*265 gpio_out[10]
*266 gpio_out[11]
*267 gpio_out[12]
*268 gpio_out[2]
*269 gpio_out[3]
*270 gpio_out[4]
*271 gpio_out[5]
*272 gpio_out[6]
*273 gpio_out[7]
*274 gpio_out[8]
*275 gpio_out[9]
*276 mask_rev[0]
*277 mask_rev[10]
*278 mask_rev[11]
*279 mask_rev[12]
*280 mask_rev[13]
*281 mask_rev[14]
*282 mask_rev[15]
*283 mask_rev[16]
*284 mask_rev[17]
*285 mask_rev[18]
*286 mask_rev[19]
*287 mask_rev[1]
*288 mask_rev[20]
*289 mask_rev[21]
*290 mask_rev[22]
*291 mask_rev[23]
*292 mask_rev[24]
*293 mask_rev[25]
*294 mask_rev[26]
*295 mask_rev[27]
*296 mask_rev[28]
*297 mask_rev[29]
*298 mask_rev[2]
*299 mask_rev[30]
*300 mask_rev[31]
*301 mask_rev[3]
*302 mask_rev[4]
*303 mask_rev[5]
*304 mask_rev[6]
*305 mask_rev[7]
*306 mask_rev[8]
*307 mask_rev[9]
*308 por_l
*309 porb_h
*310 porb_l
*311 resetb_h
*312 resetb_l
*313 mprj

*PORTS
analog_io[0] I
analog_io[10] I
analog_io[11] I
analog_io[12] I
analog_io[13] I
analog_io[14] I
analog_io[15] I
analog_io[16] I
analog_io[17] I
analog_io[18] I
analog_io[19] I
analog_io[1] I
analog_io[20] I
analog_io[21] I
analog_io[22] I
analog_io[23] I
analog_io[24] I
analog_io[25] I
analog_io[26] I
analog_io[27] I
analog_io[28] I
analog_io[29] I
analog_io[2] I
analog_io[30] I
analog_io[31] I
analog_io[32] I
analog_io[33] I
analog_io[34] I
analog_io[35] I
analog_io[36] I
analog_io[37] I
analog_io[38] I
analog_io[39] I
analog_io[3] I
analog_io[40] I
analog_io[41] I
analog_io[42] I
analog_io[43] I
analog_io[4] I
analog_io[5] I
analog_io[6] I
analog_io[7] I
analog_io[8] I
analog_io[9] I
analog_noesd_io[0] I
analog_noesd_io[10] I
analog_noesd_io[11] I
analog_noesd_io[12] I
analog_noesd_io[13] I
analog_noesd_io[14] I
analog_noesd_io[15] I
analog_noesd_io[16] I
analog_noesd_io[17] I
analog_noesd_io[18] I
analog_noesd_io[19] I
analog_noesd_io[1] I
analog_noesd_io[20] I
analog_noesd_io[21] I
analog_noesd_io[22] I
analog_noesd_io[23] I
analog_noesd_io[24] I
analog_noesd_io[25] I
analog_noesd_io[26] I
analog_noesd_io[27] I
analog_noesd_io[28] I
analog_noesd_io[29] I
analog_noesd_io[2] I
analog_noesd_io[30] I
analog_noesd_io[31] I
analog_noesd_io[32] I
analog_noesd_io[33] I
analog_noesd_io[34] I
analog_noesd_io[35] I
analog_noesd_io[36] I
analog_noesd_io[37] I
analog_noesd_io[38] I
analog_noesd_io[39] I
analog_noesd_io[3] I
analog_noesd_io[40] I
analog_noesd_io[41] I
analog_noesd_io[42] I
analog_noesd_io[43] I
analog_noesd_io[4] I
analog_noesd_io[5] I
analog_noesd_io[6] I
analog_noesd_io[7] I
analog_noesd_io[8] I
analog_noesd_io[9] I
gpio_analog_en[0] O
gpio_analog_en[10] O
gpio_analog_en[11] O
gpio_analog_en[12] O
gpio_analog_en[13] O
gpio_analog_en[14] O
gpio_analog_en[15] O
gpio_analog_en[16] O
gpio_analog_en[17] O
gpio_analog_en[18] O
gpio_analog_en[19] O
gpio_analog_en[1] O
gpio_analog_en[20] O
gpio_analog_en[21] O
gpio_analog_en[22] O
gpio_analog_en[23] O
gpio_analog_en[24] O
gpio_analog_en[25] O
gpio_analog_en[26] O
gpio_analog_en[27] O
gpio_analog_en[28] O
gpio_analog_en[29] O
gpio_analog_en[2] O
gpio_analog_en[30] O
gpio_analog_en[31] O
gpio_analog_en[32] O
gpio_analog_en[33] O
gpio_analog_en[34] O
gpio_analog_en[35] O
gpio_analog_en[36] O
gpio_analog_en[37] O
gpio_analog_en[38] O
gpio_analog_en[39] O
gpio_analog_en[3] O
gpio_analog_en[40] O
gpio_analog_en[41] O
gpio_analog_en[42] O
gpio_analog_en[43] O
gpio_analog_en[4] O
gpio_analog_en[5] O
gpio_analog_en[6] O
gpio_analog_en[7] O
gpio_analog_en[8] O
gpio_analog_en[9] O
gpio_analog_pol[0] O
gpio_analog_pol[10] O
gpio_analog_pol[11] O
gpio_analog_pol[12] O
gpio_analog_pol[13] O
gpio_analog_pol[14] O
gpio_analog_pol[15] O
gpio_analog_pol[16] O
gpio_analog_pol[17] O
gpio_analog_pol[18] O
gpio_analog_pol[19] O
gpio_analog_pol[1] O
gpio_analog_pol[20] O
gpio_analog_pol[21] O
gpio_analog_pol[22] O
gpio_analog_pol[23] O
gpio_analog_pol[24] O
gpio_analog_pol[25] O
gpio_analog_pol[26] O
gpio_analog_pol[27] O
gpio_analog_pol[28] O
gpio_analog_pol[29] O
gpio_analog_pol[2] O
gpio_analog_pol[30] O
gpio_analog_pol[31] O
gpio_analog_pol[32] O
gpio_analog_pol[33] O
gpio_analog_pol[34] O
gpio_analog_pol[35] O
gpio_analog_pol[36] O
gpio_analog_pol[37] O
gpio_analog_pol[38] O
gpio_analog_pol[39] O
gpio_analog_pol[3] O
gpio_analog_pol[40] O
gpio_analog_pol[41] O
gpio_analog_pol[42] O
gpio_analog_pol[43] O
gpio_analog_pol[4] O
gpio_analog_pol[5] O
gpio_analog_pol[6] O
gpio_analog_pol[7] O
gpio_analog_pol[8] O
gpio_analog_pol[9] O
gpio_analog_sel[0] O
gpio_analog_sel[10] O
gpio_analog_sel[11] O
gpio_analog_sel[12] O
gpio_analog_sel[13] O
gpio_analog_sel[14] O
gpio_analog_sel[15] O
gpio_analog_sel[16] O
gpio_analog_sel[17] O
gpio_analog_sel[18] O
gpio_analog_sel[19] O
gpio_analog_sel[1] O
gpio_analog_sel[20] O
gpio_analog_sel[21] O
gpio_analog_sel[22] O
gpio_analog_sel[23] O
gpio_analog_sel[24] O
gpio_analog_sel[25] O
gpio_analog_sel[26] O
gpio_analog_sel[27] O
gpio_analog_sel[28] O
gpio_analog_sel[29] O
gpio_analog_sel[2] O
gpio_analog_sel[30] O
gpio_analog_sel[31] O
gpio_analog_sel[32] O
gpio_analog_sel[33] O
gpio_analog_sel[34] O
gpio_analog_sel[35] O
gpio_analog_sel[36] O
gpio_analog_sel[37] O
gpio_analog_sel[38] O
gpio_analog_sel[39] O
gpio_analog_sel[3] O
gpio_analog_sel[40] O
gpio_analog_sel[41] O
gpio_analog_sel[42] O
gpio_analog_sel[43] O
gpio_analog_sel[4] O
gpio_analog_sel[5] O
gpio_analog_sel[6] O
gpio_analog_sel[7] O
gpio_analog_sel[8] O
gpio_analog_sel[9] O
gpio_dm0[0] O
gpio_dm0[10] O
gpio_dm0[11] O
gpio_dm0[12] O
gpio_dm0[13] O
gpio_dm0[14] O
gpio_dm0[15] O
gpio_dm0[16] O
gpio_dm0[17] O
gpio_dm0[18] O
gpio_dm0[19] O
gpio_dm0[1] O
gpio_dm0[20] O
gpio_dm0[21] O
gpio_dm0[22] O
gpio_dm0[23] O
gpio_dm0[24] O
gpio_dm0[25] O
gpio_dm0[26] O
gpio_dm0[27] O
gpio_dm0[28] O
gpio_dm0[29] O
gpio_dm0[2] O
gpio_dm0[30] O
gpio_dm0[31] O
gpio_dm0[32] O
gpio_dm0[33] O
gpio_dm0[34] O
gpio_dm0[35] O
gpio_dm0[36] O
gpio_dm0[37] O
gpio_dm0[38] O
gpio_dm0[39] O
gpio_dm0[3] O
gpio_dm0[40] O
gpio_dm0[41] O
gpio_dm0[42] O
gpio_dm0[43] O
gpio_dm0[4] O
gpio_dm0[5] O
gpio_dm0[6] O
gpio_dm0[7] O
gpio_dm0[8] O
gpio_dm0[9] O
gpio_dm1[0] O
gpio_dm1[10] O
gpio_dm1[11] O
gpio_dm1[12] O
gpio_dm1[13] O
gpio_dm1[14] O
gpio_dm1[15] O
gpio_dm1[16] O
gpio_dm1[17] O
gpio_dm1[18] O
gpio_dm1[19] O
gpio_dm1[1] O
gpio_dm1[20] O
gpio_dm1[21] O
gpio_dm1[22] O
gpio_dm1[23] O
gpio_dm1[24] O
gpio_dm1[25] O
gpio_dm1[26] O
gpio_dm1[27] O
gpio_dm1[28] O
gpio_dm1[29] O
gpio_dm1[2] O
gpio_dm1[30] O
gpio_dm1[31] O
gpio_dm1[32] O
gpio_dm1[33] O
gpio_dm1[34] O
gpio_dm1[35] O
gpio_dm1[36] O
gpio_dm1[37] O
gpio_dm1[38] O
gpio_dm1[39] O
gpio_dm1[3] O
gpio_dm1[40] O
gpio_dm1[41] O
gpio_dm1[42] O
gpio_dm1[43] O
gpio_dm1[4] O
gpio_dm1[5] O
gpio_dm1[6] O
gpio_dm1[7] O
gpio_dm1[8] O
gpio_dm1[9] O
gpio_dm2[0] O
gpio_dm2[10] O
gpio_dm2[11] O
gpio_dm2[12] O
gpio_dm2[13] O
gpio_dm2[14] O
gpio_dm2[15] O
gpio_dm2[16] O
gpio_dm2[17] O
gpio_dm2[18] O
gpio_dm2[19] O
gpio_dm2[1] O
gpio_dm2[20] O
gpio_dm2[21] O
gpio_dm2[22] O
gpio_dm2[23] O
gpio_dm2[24] O
gpio_dm2[25] O
gpio_dm2[26] O
gpio_dm2[27] O
gpio_dm2[28] O
gpio_dm2[29] O
gpio_dm2[2] O
gpio_dm2[30] O
gpio_dm2[31] O
gpio_dm2[32] O
gpio_dm2[33] O
gpio_dm2[34] O
gpio_dm2[35] O
gpio_dm2[36] O
gpio_dm2[37] O
gpio_dm2[38] O
gpio_dm2[39] O
gpio_dm2[3] O
gpio_dm2[40] O
gpio_dm2[41] O
gpio_dm2[42] O
gpio_dm2[43] O
gpio_dm2[4] O
gpio_dm2[5] O
gpio_dm2[6] O
gpio_dm2[7] O
gpio_dm2[8] O
gpio_dm2[9] O
gpio_holdover[0] O
gpio_holdover[10] O
gpio_holdover[11] O
gpio_holdover[12] O
gpio_holdover[13] O
gpio_holdover[14] O
gpio_holdover[15] O
gpio_holdover[16] O
gpio_holdover[17] O
gpio_holdover[18] O
gpio_holdover[19] O
gpio_holdover[1] O
gpio_holdover[20] O
gpio_holdover[21] O
gpio_holdover[22] O
gpio_holdover[23] O
gpio_holdover[24] O
gpio_holdover[25] O
gpio_holdover[26] O
gpio_holdover[27] O
gpio_holdover[28] O
gpio_holdover[29] O
gpio_holdover[2] O
gpio_holdover[30] O
gpio_holdover[31] O
gpio_holdover[32] O
gpio_holdover[33] O
gpio_holdover[34] O
gpio_holdover[35] O
gpio_holdover[36] O
gpio_holdover[37] O
gpio_holdover[38] O
gpio_holdover[39] O
gpio_holdover[3] O
gpio_holdover[40] O
gpio_holdover[41] O
gpio_holdover[42] O
gpio_holdover[43] O
gpio_holdover[4] O
gpio_holdover[5] O
gpio_holdover[6] O
gpio_holdover[7] O
gpio_holdover[8] O
gpio_holdover[9] O
gpio_ib_mode_sel[0] O
gpio_ib_mode_sel[10] O
gpio_ib_mode_sel[11] O
gpio_ib_mode_sel[12] O
gpio_ib_mode_sel[13] O
gpio_ib_mode_sel[14] O
gpio_ib_mode_sel[15] O
gpio_ib_mode_sel[16] O
gpio_ib_mode_sel[17] O
gpio_ib_mode_sel[18] O
gpio_ib_mode_sel[19] O
gpio_ib_mode_sel[1] O
gpio_ib_mode_sel[20] O
gpio_ib_mode_sel[21] O
gpio_ib_mode_sel[22] O
gpio_ib_mode_sel[23] O
gpio_ib_mode_sel[24] O
gpio_ib_mode_sel[25] O
gpio_ib_mode_sel[26] O
gpio_ib_mode_sel[27] O
gpio_ib_mode_sel[28] O
gpio_ib_mode_sel[29] O
gpio_ib_mode_sel[2] O
gpio_ib_mode_sel[30] O
gpio_ib_mode_sel[31] O
gpio_ib_mode_sel[32] O
gpio_ib_mode_sel[33] O
gpio_ib_mode_sel[34] O
gpio_ib_mode_sel[35] O
gpio_ib_mode_sel[36] O
gpio_ib_mode_sel[37] O
gpio_ib_mode_sel[38] O
gpio_ib_mode_sel[39] O
gpio_ib_mode_sel[3] O
gpio_ib_mode_sel[40] O
gpio_ib_mode_sel[41] O
gpio_ib_mode_sel[42] O
gpio_ib_mode_sel[43] O
gpio_ib_mode_sel[4] O
gpio_ib_mode_sel[5] O
gpio_ib_mode_sel[6] O
gpio_ib_mode_sel[7] O
gpio_ib_mode_sel[8] O
gpio_ib_mode_sel[9] O
gpio_in[0] I
gpio_in[10] I
gpio_in[11] I
gpio_in[12] I
gpio_in[13] I
gpio_in[14] I
gpio_in[15] I
gpio_in[16] I
gpio_in[17] I
gpio_in[18] I
gpio_in[19] I
gpio_in[1] I
gpio_in[20] I
gpio_in[21] I
gpio_in[22] I
gpio_in[23] I
gpio_in[24] I
gpio_in[25] I
gpio_in[26] I
gpio_in[27] I
gpio_in[28] I
gpio_in[29] I
gpio_in[2] I
gpio_in[30] I
gpio_in[31] I
gpio_in[32] I
gpio_in[33] I
gpio_in[34] I
gpio_in[35] I
gpio_in[36] I
gpio_in[37] I
gpio_in[38] I
gpio_in[39] I
gpio_in[3] I
gpio_in[40] I
gpio_in[41] I
gpio_in[42] I
gpio_in[43] I
gpio_in[4] I
gpio_in[5] I
gpio_in[6] I
gpio_in[7] I
gpio_in[8] I
gpio_in[9] I
gpio_in_h[0] I
gpio_in_h[10] I
gpio_in_h[11] I
gpio_in_h[12] I
gpio_in_h[13] I
gpio_in_h[14] I
gpio_in_h[15] I
gpio_in_h[16] I
gpio_in_h[17] I
gpio_in_h[18] I
gpio_in_h[19] I
gpio_in_h[1] I
gpio_in_h[20] I
gpio_in_h[21] I
gpio_in_h[22] I
gpio_in_h[23] I
gpio_in_h[24] I
gpio_in_h[25] I
gpio_in_h[26] I
gpio_in_h[27] I
gpio_in_h[28] I
gpio_in_h[29] I
gpio_in_h[2] I
gpio_in_h[30] I
gpio_in_h[31] I
gpio_in_h[32] I
gpio_in_h[33] I
gpio_in_h[34] I
gpio_in_h[35] I
gpio_in_h[36] I
gpio_in_h[37] I
gpio_in_h[38] I
gpio_in_h[39] I
gpio_in_h[3] I
gpio_in_h[40] I
gpio_in_h[41] I
gpio_in_h[42] I
gpio_in_h[43] I
gpio_in_h[4] I
gpio_in_h[5] I
gpio_in_h[6] I
gpio_in_h[7] I
gpio_in_h[8] I
gpio_in_h[9] I
gpio_inp_dis[0] O
gpio_inp_dis[10] O
gpio_inp_dis[11] O
gpio_inp_dis[12] O
gpio_inp_dis[13] O
gpio_inp_dis[14] O
gpio_inp_dis[15] O
gpio_inp_dis[16] O
gpio_inp_dis[17] O
gpio_inp_dis[18] O
gpio_inp_dis[19] O
gpio_inp_dis[1] O
gpio_inp_dis[20] O
gpio_inp_dis[21] O
gpio_inp_dis[22] O
gpio_inp_dis[23] O
gpio_inp_dis[24] O
gpio_inp_dis[25] O
gpio_inp_dis[26] O
gpio_inp_dis[27] O
gpio_inp_dis[28] O
gpio_inp_dis[29] O
gpio_inp_dis[2] O
gpio_inp_dis[30] O
gpio_inp_dis[31] O
gpio_inp_dis[32] O
gpio_inp_dis[33] O
gpio_inp_dis[34] O
gpio_inp_dis[35] O
gpio_inp_dis[36] O
gpio_inp_dis[37] O
gpio_inp_dis[38] O
gpio_inp_dis[39] O
gpio_inp_dis[3] O
gpio_inp_dis[40] O
gpio_inp_dis[41] O
gpio_inp_dis[42] O
gpio_inp_dis[43] O
gpio_inp_dis[4] O
gpio_inp_dis[5] O
gpio_inp_dis[6] O
gpio_inp_dis[7] O
gpio_inp_dis[8] O
gpio_inp_dis[9] O
gpio_loopback_one[0] I
gpio_loopback_one[10] I
gpio_loopback_one[11] I
gpio_loopback_one[12] I
gpio_loopback_one[13] I
gpio_loopback_one[14] I
gpio_loopback_one[15] I
gpio_loopback_one[16] I
gpio_loopback_one[17] I
gpio_loopback_one[18] I
gpio_loopback_one[19] I
gpio_loopback_one[1] I
gpio_loopback_one[20] I
gpio_loopback_one[21] I
gpio_loopback_one[22] I
gpio_loopback_one[23] I
gpio_loopback_one[24] I
gpio_loopback_one[25] I
gpio_loopback_one[26] I
gpio_loopback_one[27] I
gpio_loopback_one[28] I
gpio_loopback_one[29] I
gpio_loopback_one[2] I
gpio_loopback_one[30] I
gpio_loopback_one[31] I
gpio_loopback_one[32] I
gpio_loopback_one[33] I
gpio_loopback_one[34] I
gpio_loopback_one[35] I
gpio_loopback_one[36] I
gpio_loopback_one[37] I
gpio_loopback_one[38] I
gpio_loopback_one[39] I
gpio_loopback_one[3] I
gpio_loopback_one[40] I
gpio_loopback_one[41] I
gpio_loopback_one[42] I
gpio_loopback_one[43] I
gpio_loopback_one[4] I
gpio_loopback_one[5] I
gpio_loopback_one[6] I
gpio_loopback_one[7] I
gpio_loopback_one[8] I
gpio_loopback_one[9] I
gpio_loopback_zero[0] I
gpio_loopback_zero[10] I
gpio_loopback_zero[11] I
gpio_loopback_zero[12] I
gpio_loopback_zero[13] I
gpio_loopback_zero[14] I
gpio_loopback_zero[15] I
gpio_loopback_zero[16] I
gpio_loopback_zero[17] I
gpio_loopback_zero[18] I
gpio_loopback_zero[19] I
gpio_loopback_zero[1] I
gpio_loopback_zero[20] I
gpio_loopback_zero[21] I
gpio_loopback_zero[22] I
gpio_loopback_zero[23] I
gpio_loopback_zero[24] I
gpio_loopback_zero[25] I
gpio_loopback_zero[26] I
gpio_loopback_zero[27] I
gpio_loopback_zero[28] I
gpio_loopback_zero[29] I
gpio_loopback_zero[2] I
gpio_loopback_zero[30] I
gpio_loopback_zero[31] I
gpio_loopback_zero[32] I
gpio_loopback_zero[33] I
gpio_loopback_zero[34] I
gpio_loopback_zero[35] I
gpio_loopback_zero[36] I
gpio_loopback_zero[37] I
gpio_loopback_zero[38] I
gpio_loopback_zero[39] I
gpio_loopback_zero[3] I
gpio_loopback_zero[40] I
gpio_loopback_zero[41] I
gpio_loopback_zero[42] I
gpio_loopback_zero[43] I
gpio_loopback_zero[4] I
gpio_loopback_zero[5] I
gpio_loopback_zero[6] I
gpio_loopback_zero[7] I
gpio_loopback_zero[8] I
gpio_loopback_zero[9] I
gpio_oeb[0] O
gpio_oeb[10] O
gpio_oeb[11] O
gpio_oeb[12] O
gpio_oeb[13] O
gpio_oeb[14] O
gpio_oeb[15] O
gpio_oeb[16] O
gpio_oeb[17] O
gpio_oeb[18] O
gpio_oeb[19] O
gpio_oeb[1] O
gpio_oeb[20] O
gpio_oeb[21] O
gpio_oeb[22] O
gpio_oeb[23] O
gpio_oeb[24] O
gpio_oeb[25] O
gpio_oeb[26] O
gpio_oeb[27] O
gpio_oeb[28] O
gpio_oeb[29] O
gpio_oeb[2] O
gpio_oeb[30] O
gpio_oeb[31] O
gpio_oeb[32] O
gpio_oeb[33] O
gpio_oeb[34] O
gpio_oeb[35] O
gpio_oeb[36] O
gpio_oeb[37] O
gpio_oeb[38] O
gpio_oeb[39] O
gpio_oeb[3] O
gpio_oeb[40] O
gpio_oeb[41] O
gpio_oeb[42] O
gpio_oeb[43] O
gpio_oeb[4] O
gpio_oeb[5] O
gpio_oeb[6] O
gpio_oeb[7] O
gpio_oeb[8] O
gpio_oeb[9] O
gpio_out[0] O
gpio_out[10] O
gpio_out[11] O
gpio_out[12] O
gpio_out[13] O
gpio_out[14] O
gpio_out[15] O
gpio_out[16] O
gpio_out[17] O
gpio_out[18] O
gpio_out[19] O
gpio_out[1] O
gpio_out[20] O
gpio_out[21] O
gpio_out[22] O
gpio_out[23] O
gpio_out[24] O
gpio_out[25] O
gpio_out[26] O
gpio_out[27] O
gpio_out[28] O
gpio_out[29] O
gpio_out[2] O
gpio_out[30] O
gpio_out[31] O
gpio_out[32] O
gpio_out[33] O
gpio_out[34] O
gpio_out[35] O
gpio_out[36] O
gpio_out[37] O
gpio_out[38] O
gpio_out[39] O
gpio_out[3] O
gpio_out[40] O
gpio_out[41] O
gpio_out[42] O
gpio_out[43] O
gpio_out[4] O
gpio_out[5] O
gpio_out[6] O
gpio_out[7] O
gpio_out[8] O
gpio_out[9] O
gpio_slow_sel[0] O
gpio_slow_sel[10] O
gpio_slow_sel[11] O
gpio_slow_sel[12] O
gpio_slow_sel[13] O
gpio_slow_sel[14] O
gpio_slow_sel[15] O
gpio_slow_sel[16] O
gpio_slow_sel[17] O
gpio_slow_sel[18] O
gpio_slow_sel[19] O
gpio_slow_sel[1] O
gpio_slow_sel[20] O
gpio_slow_sel[21] O
gpio_slow_sel[22] O
gpio_slow_sel[23] O
gpio_slow_sel[24] O
gpio_slow_sel[25] O
gpio_slow_sel[26] O
gpio_slow_sel[27] O
gpio_slow_sel[28] O
gpio_slow_sel[29] O
gpio_slow_sel[2] O
gpio_slow_sel[30] O
gpio_slow_sel[31] O
gpio_slow_sel[32] O
gpio_slow_sel[33] O
gpio_slow_sel[34] O
gpio_slow_sel[35] O
gpio_slow_sel[36] O
gpio_slow_sel[37] O
gpio_slow_sel[38] O
gpio_slow_sel[39] O
gpio_slow_sel[3] O
gpio_slow_sel[40] O
gpio_slow_sel[41] O
gpio_slow_sel[42] O
gpio_slow_sel[43] O
gpio_slow_sel[4] O
gpio_slow_sel[5] O
gpio_slow_sel[6] O
gpio_slow_sel[7] O
gpio_slow_sel[8] O
gpio_slow_sel[9] O
gpio_vtrip_sel[0] O
gpio_vtrip_sel[10] O
gpio_vtrip_sel[11] O
gpio_vtrip_sel[12] O
gpio_vtrip_sel[13] O
gpio_vtrip_sel[14] O
gpio_vtrip_sel[15] O
gpio_vtrip_sel[16] O
gpio_vtrip_sel[17] O
gpio_vtrip_sel[18] O
gpio_vtrip_sel[19] O
gpio_vtrip_sel[1] O
gpio_vtrip_sel[20] O
gpio_vtrip_sel[21] O
gpio_vtrip_sel[22] O
gpio_vtrip_sel[23] O
gpio_vtrip_sel[24] O
gpio_vtrip_sel[25] O
gpio_vtrip_sel[26] O
gpio_vtrip_sel[27] O
gpio_vtrip_sel[28] O
gpio_vtrip_sel[29] O
gpio_vtrip_sel[2] O
gpio_vtrip_sel[30] O
gpio_vtrip_sel[31] O
gpio_vtrip_sel[32] O
gpio_vtrip_sel[33] O
gpio_vtrip_sel[34] O
gpio_vtrip_sel[35] O
gpio_vtrip_sel[36] O
gpio_vtrip_sel[37] O
gpio_vtrip_sel[38] O
gpio_vtrip_sel[39] O
gpio_vtrip_sel[3] O
gpio_vtrip_sel[40] O
gpio_vtrip_sel[41] O
gpio_vtrip_sel[42] O
gpio_vtrip_sel[43] O
gpio_vtrip_sel[4] O
gpio_vtrip_sel[5] O
gpio_vtrip_sel[6] O
gpio_vtrip_sel[7] O
gpio_vtrip_sel[8] O
gpio_vtrip_sel[9] O
mask_rev[0] I
mask_rev[10] I
mask_rev[11] I
mask_rev[12] I
mask_rev[13] I
mask_rev[14] I
mask_rev[15] I
mask_rev[16] I
mask_rev[17] I
mask_rev[18] I
mask_rev[19] I
mask_rev[1] I
mask_rev[20] I
mask_rev[21] I
mask_rev[22] I
mask_rev[23] I
mask_rev[24] I
mask_rev[25] I
mask_rev[26] I
mask_rev[27] I
mask_rev[28] I
mask_rev[29] I
mask_rev[2] I
mask_rev[30] I
mask_rev[31] I
mask_rev[3] I
mask_rev[4] I
mask_rev[5] I
mask_rev[6] I
mask_rev[7] I
mask_rev[8] I
mask_rev[9] I
por_l I
porb_h I
porb_l I
resetb_h I
resetb_l I

*D_NET *89 0.0120048
*CONN
*P gpio_ib_mode_sel[0] O
*P gpio_out[0] O
*P gpio_holdover[0] O
*P gpio_dm2[0] O
*P gpio_analog_sel[0] O
*P gpio_inp_dis[0] O
*P gpio_analog_pol[0] O
*P gpio_analog_en[0] O
*P gpio_dm1[0] O
*P gpio_slow_sel[0] O
*P gpio_vtrip_sel[0] O
*P gpio_loopback_zero[0] I
*CAP
1 gpio_ib_mode_sel[0] 2.22743e-05
2 gpio_out[0] 3.69198e-05
3 gpio_holdover[0] 2.10287e-05
4 gpio_dm2[0] 2.80088e-05
5 gpio_analog_sel[0] 4.23586e-05
6 gpio_inp_dis[0] 6.90492e-05
7 gpio_analog_pol[0] 4.53776e-05
8 gpio_analog_en[0] 4.47945e-05
9 gpio_dm1[0] 9.83474e-05
10 gpio_slow_sel[0] 0.000555906
11 gpio_vtrip_sel[0] 3.83297e-05
12 gpio_loopback_zero[0] 0.00152135
13 *89:55 0.000948101
14 *89:53 0.000698217
15 *89:51 0.000603146
16 *89:49 0.000824536
17 *89:43 0.000762229
18 *89:39 0.000353163
19 *89:37 0.00032058
20 *89:35 0.000596041
21 *89:23 0.000665313
22 *89:13 0.00174846
23 gpio_analog_en[0] gpio_dm0[0] 2.17773e-05
24 gpio_analog_pol[0] gpio_dm0[0] 2.17773e-05
25 gpio_ib_mode_sel[0] gpio_oeb[0] 1.9955e-05
26 gpio_ib_mode_sel[0] *133:13 5.19471e-06
27 gpio_inp_dis[0] gpio_dm0[0] 1.42947e-05
28 *89:13 gpio_dm0[0] 0.00019902
29 *89:13 gpio_oeb[0] 2.75545e-05
30 *89:13 *133:13 0.00047992
31 *89:23 gpio_dm0[0] 0.000120211
32 *89:35 gpio_dm0[0] 0.0002652
33 *89:49 gpio_dm0[0] 0.000786334
*RES
1 gpio_loopback_zero[0] *89:13 11.8302 
2 *89:13 *89:23 1.02773 
3 *89:23 gpio_vtrip_sel[0] 0.167633 
4 *89:23 *89:35 11.7493 
5 *89:35 *89:37 2.58929 
6 *89:37 *89:39 3 
7 *89:39 *89:43 6.41 
8 *89:43 *89:49 5.62997 
9 *89:49 *89:51 0.4794 
10 *89:51 *89:53 1.05593 
11 *89:53 *89:55 0.983867 
12 *89:55 gpio_slow_sel[0] 5.2101 
13 *89:55 gpio_dm1[0] 3.72177 
14 *89:53 gpio_analog_en[0] 3.72177 
15 *89:51 gpio_analog_pol[0] 3.72177 
16 *89:49 gpio_inp_dis[0] 3.72177 
17 *89:43 gpio_analog_sel[0] 0.1316 
18 *89:39 gpio_dm2[0] 3.5416 
19 *89:37 gpio_holdover[0] 3.5416 
20 *89:35 gpio_out[0] 3.5416 
21 *89:13 gpio_ib_mode_sel[0] 0.167633 
*END

*D_NET *90 0.0122539
*CONN
*P gpio_oeb[10] O
*P gpio_ib_mode_sel[10] O
*P gpio_vtrip_sel[10] O
*P gpio_holdover[10] O
*P gpio_analog_sel[10] O
*P gpio_analog_pol[10] O
*P gpio_dm0[10] O
*P gpio_slow_sel[10] O
*P gpio_analog_en[10] O
*P gpio_loopback_zero[10] I
*CAP
1 gpio_oeb[10] 2.48246e-05
2 gpio_ib_mode_sel[10] 8.15292e-06
3 gpio_vtrip_sel[10] 4.23586e-05
4 gpio_holdover[10] 2.41648e-05
5 gpio_analog_sel[10] 6.52879e-05
6 gpio_analog_pol[10] 4.81935e-05
7 gpio_dm0[10] 4.3814e-05
8 gpio_slow_sel[10] 0.000751013
9 gpio_analog_en[10] 6.08273e-05
10 gpio_loopback_zero[10] 0.00102179
11 *90:51 0.000863458
12 *90:47 0.00012949
13 *90:45 0.000491678
14 *90:41 0.000837799
15 *90:31 0.000946719
16 *90:27 0.000764405
17 *90:23 0.000367401
18 *90:13 0.00124329
19 gpio_analog_en[10] gpio_dm1[10] 0
20 gpio_analog_pol[10] gpio_inp_dis[10] 1.55929e-05
21 gpio_analog_sel[10] gpio_dm2[10] 1.10677e-05
22 gpio_holdover[10] gpio_out[10] 1.55929e-05
23 gpio_slow_sel[10] gpio_dm1[10] 0
24 gpio_slow_sel[10] gpio_out[10] 0.000274226
25 *90:13 *135:23 0.000520857
26 *90:23 *135:23 0.000120211
27 *90:31 *135:23 0.0002652
28 *90:41 gpio_dm2[10] 1.22614e-05
29 *90:41 gpio_out[10] 0.000127006
30 *90:41 *135:23 0.000275936
31 *90:45 gpio_dm1[10] 0.000257617
32 *90:45 gpio_out[10] 0.00117613
33 *90:45 *135:23 0
34 *90:45 *135:29 0.000375714
35 *90:47 gpio_dm1[10] 0.000272726
36 *90:47 gpio_out[10] 0.000249482
37 *90:51 gpio_dm1[10] 0.000272646
38 *90:51 gpio_out[10] 0.000276987
*RES
1 gpio_loopback_zero[10] *90:13 10.4218 
2 *90:13 *90:23 0.955667 
3 *90:23 *90:27 6.41 
4 *90:27 *90:31 14.2136 
5 *90:31 *90:41 4.82313 
6 *90:41 *90:45 2.50823 
7 *90:45 *90:47 0.551467 
8 *90:47 *90:51 3.97008 
9 *90:51 gpio_analog_en[10] 0.22325 
10 *90:51 gpio_slow_sel[10] 20.6641 
11 *90:47 gpio_dm0[10] 3.62463 
12 *90:45 gpio_analog_pol[10] 3.62463 
13 *90:41 gpio_analog_sel[10] 3.5416 
14 *90:31 gpio_holdover[10] 0.1316 
15 *90:27 gpio_vtrip_sel[10] 3.5416 
16 *90:23 gpio_ib_mode_sel[10] 0.1316 
17 *90:13 gpio_oeb[10] 0.1316 
*END

*D_NET *91 0.0140439
*CONN
*P gpio_oeb[11] O
*P gpio_ib_mode_sel[11] O
*P gpio_vtrip_sel[11] O
*P gpio_holdover[11] O
*P gpio_analog_sel[11] O
*P gpio_analog_pol[11] O
*P gpio_dm0[11] O
*P gpio_analog_en[11] O
*P gpio_slow_sel[11] O
*P gpio_loopback_zero[11] I
*CAP
1 gpio_oeb[11] 6.3897e-05
2 gpio_ib_mode_sel[11] 3.3868e-05
3 gpio_vtrip_sel[11] 7.96226e-05
4 gpio_holdover[11] 9.18548e-05
5 gpio_analog_sel[11] 9.92849e-05
6 gpio_analog_pol[11] 7.16727e-05
7 gpio_dm0[11] 5.07991e-05
8 gpio_analog_en[11] 9.55412e-05
9 gpio_slow_sel[11] 0.000483247
10 gpio_loopback_zero[11] 0.000849405
11 *91:23 0.000629521
12 *91:21 0.000152264
13 *91:19 0.000403655
14 *91:17 0.000681428
15 *91:15 0.00076257
16 *91:13 0.000560646
17 *91:11 0.00025627
18 *91:9 0.0010245
19 gpio_analog_en[11] gpio_dm1[11] 0
20 gpio_analog_pol[11] gpio_inp_dis[11] 4.18853e-05
21 gpio_analog_sel[11] gpio_dm2[11] 4.15157e-05
22 gpio_analog_sel[11] *266:13 1.10785e-05
23 gpio_holdover[11] gpio_dm2[11] 4.15157e-05
24 gpio_holdover[11] gpio_out[11] 2.14465e-05
25 gpio_slow_sel[11] gpio_dm1[11] 0.000483247
26 gpio_slow_sel[11] *266:13 0.0011827
27 *91:9 *136:9 0.000712996
28 *91:11 *136:9 0.000249482
29 *91:13 *136:9 0.000249482
30 *91:15 *136:9 0.000926648
31 *91:17 *136:9 0.000265321
32 *91:17 *136:11 0.000242158
33 *91:19 gpio_dm1[11] 0.000206517
34 *91:19 *136:11 0.000978128
35 *91:19 *266:13 0.00098159
36 *91:21 gpio_dm1[11] 0.000249482
37 *91:21 *266:13 0.000259595
38 *91:23 gpio_dm1[11] 0.000249482
39 *91:23 *266:13 0.000259595
*RES
1 gpio_loopback_zero[11] *91:9 6.7846 
2 *91:9 *91:11 0.551467 
3 *91:11 *91:13 0.551467 
4 *91:13 *91:15 1.92073 
5 *91:15 *91:17 1.05593 
6 *91:17 *91:19 2.4252 
7 *91:19 *91:21 0.551467 
8 *91:21 *91:23 0.551467 
9 *91:23 gpio_slow_sel[11] 6.14697 
10 *91:23 gpio_analog_en[11] 3.72177 
11 *91:21 gpio_dm0[11] 3.72177 
12 *91:19 gpio_analog_pol[11] 3.72177 
13 *91:17 gpio_analog_sel[11] 3.72177 
14 *91:15 gpio_holdover[11] 3.72177 
15 *91:13 gpio_vtrip_sel[11] 3.72177 
16 *91:11 gpio_ib_mode_sel[11] 3.72177 
17 *91:9 gpio_oeb[11] 3.72177 
*END

*D_NET *92 0.0139289
*CONN
*P gpio_oeb[12] O
*P gpio_ib_mode_sel[12] O
*P gpio_vtrip_sel[12] O
*P gpio_holdover[12] O
*P gpio_analog_sel[12] O
*P gpio_analog_pol[12] O
*P gpio_dm0[12] O
*P gpio_analog_en[12] O
*P gpio_slow_sel[12] O
*P gpio_loopback_zero[12] I
*CAP
1 gpio_oeb[12] 2.97619e-05
2 gpio_ib_mode_sel[12] 1.654e-05
3 gpio_vtrip_sel[12] 6.91475e-05
4 gpio_holdover[12] 7.96216e-05
5 gpio_analog_sel[12] 9.67346e-05
6 gpio_analog_pol[12] 6.70544e-05
7 gpio_dm0[12] 6.62459e-05
8 gpio_analog_en[12] 0.000114429
9 gpio_slow_sel[12] 0.000563194
10 gpio_loopback_zero[12] 0.000915762
11 *92:29 0.000750539
12 *92:27 0.000172164
13 *92:25 0.000328724
14 *92:23 0.000452205
15 *92:21 0.000562029
16 *92:19 0.000520799
17 *92:13 0.000275164
18 *92:9 0.0011081
19 gpio_analog_pol[12] gpio_inp_dis[12] 1.55929e-05
20 gpio_analog_pol[12] gpio_out[12] 4.7145e-05
21 gpio_analog_sel[12] gpio_dm2[12] 1.74922e-05
22 gpio_holdover[12] gpio_dm2[12] 1.68933e-05
23 gpio_holdover[12] gpio_out[12] 2.45075e-05
24 gpio_slow_sel[12] gpio_dm1[12] 0.000543358
25 gpio_slow_sel[12] gpio_out[12] 0.00120816
26 *92:9 *137:9 0.000297081
27 *92:19 *137:9 0.000233599
28 *92:21 gpio_out[12] 0.000176959
29 *92:21 *137:9 0.000948342
30 *92:23 gpio_out[12] 0.000476658
31 *92:23 *137:9 0.0002588
32 *92:23 *137:11 0.000223886
33 *92:25 gpio_dm1[12] 0.000223886
34 *92:25 gpio_out[12] 0.0011787
35 *92:25 *137:11 0.0009964
36 *92:27 gpio_dm1[12] 0.000210743
37 *92:27 gpio_out[12] 0.000206401
38 *92:29 gpio_dm1[12] 0.000210743
39 *92:29 gpio_out[12] 0.000225295
*RES
1 gpio_loopback_zero[12] *92:9 20.8541 
2 *92:9 *92:13 6.41 
3 *92:13 *92:19 4.01238 
4 *92:19 *92:21 1.9646 
5 *92:21 *92:23 1.0058 
6 *92:23 *92:25 2.49727 
7 *92:25 *92:27 0.473133 
8 *92:27 *92:29 0.473133 
9 *92:29 gpio_slow_sel[12] 6.50808 
10 *92:29 gpio_analog_en[12] 11.2705 
11 *92:27 gpio_dm0[12] 3.71628 
12 *92:25 gpio_analog_pol[12] 3.70532 
13 *92:23 gpio_analog_sel[12] 3.71002 
14 *92:21 gpio_holdover[12] 3.68338 
15 *92:19 gpio_vtrip_sel[12] 3.70375 
16 *92:13 gpio_ib_mode_sel[12] 0.1316 
17 *92:9 gpio_oeb[12] 3.5416 
*END

*D_NET *93 0.00997967
*CONN
*P gpio_out[13] O
*P gpio_holdover[13] O
*P gpio_dm2[13] O
*P gpio_analog_sel[13] O
*P gpio_analog_pol[13] O
*P gpio_dm0[13] O
*P gpio_analog_en[13] O
*P gpio_dm1[13] O
*P gpio_slow_sel[13] O
*P gpio_vtrip_sel[13] O
*P gpio_ib_mode_sel[13] O
*P gpio_loopback_zero[13] I
*CAP
1 gpio_out[13] 3.69198e-05
2 gpio_holdover[13] 2.29897e-05
3 gpio_dm2[13] 1.25942e-05
4 gpio_analog_sel[13] 4.23586e-05
5 gpio_analog_pol[13] 1.97878e-05
6 gpio_dm0[13] 1.03418e-05
7 gpio_analog_en[13] 6.68095e-06
8 gpio_dm1[13] 4.15522e-05
9 gpio_slow_sel[13] 0.000461339
10 gpio_vtrip_sel[13] 3.83297e-05
11 gpio_ib_mode_sel[13] 0.00113617
12 gpio_loopback_zero[13] 0.000937394
13 *93:83 0.000778382
14 *93:79 0.000476704
15 *93:69 0.000367452
16 *93:65 0.00088035
17 *93:61 0.00102948
18 *93:51 0.000456166
19 *93:47 0.000314401
20 *93:45 0.000596041
21 *93:33 0.00062819
22 *93:24 3.1066e-05
23 gpio_analog_pol[13] gpio_inp_dis[13] 2.14465e-05
24 gpio_ib_mode_sel[13] gpio_oeb[13] 2.06255e-05
25 gpio_ib_mode_sel[13] *234:11 0.000614291
26 *93:33 gpio_inp_dis[13] 0.000120211
27 *93:45 gpio_inp_dis[13] 0.0002652
28 *93:61 gpio_inp_dis[13] 0.000259595
29 *93:65 gpio_inp_dis[13] 0.000353611
*RES
1 gpio_loopback_zero[13] gpio_ib_mode_sel[13] 26.522 
2 gpio_ib_mode_sel[13] *93:24 0.271817 
3 gpio_ib_mode_sel[13] *93:33 0.755917 
4 *93:33 gpio_vtrip_sel[13] 0.167633 
5 *93:33 *93:45 11.7493 
6 *93:45 *93:47 2.58929 
7 *93:47 *93:51 6.41 
8 *93:51 *93:61 7.8258 
9 *93:61 *93:65 17.0886 
10 *93:65 *93:69 6.41 
11 *93:69 *93:79 0.955667 
12 *93:79 *93:83 8.87429 
13 *93:83 gpio_slow_sel[13] 11.8809 
14 *93:83 gpio_dm1[13] 3.5416 
15 *93:79 gpio_analog_en[13] 0.1316 
16 *93:69 gpio_dm0[13] 0.1316 
17 *93:65 gpio_analog_pol[13] 3.5416 
18 *93:61 gpio_analog_sel[13] 0.1316 
19 *93:51 gpio_dm2[13] 0.1316 
20 *93:47 gpio_holdover[13] 3.5416 
21 *93:45 gpio_out[13] 3.5416 
*END

*D_NET *94 0.0105506
*CONN
*P gpio_vtrip_sel[14] O
*P gpio_out[14] O
*P gpio_holdover[14] O
*P gpio_dm2[14] O
*P gpio_analog_sel[14] O
*P gpio_analog_pol[14] O
*P gpio_dm0[14] O
*P gpio_analog_en[14] O
*P gpio_dm1[14] O
*P gpio_slow_sel[14] O
*P gpio_ib_mode_sel[14] O
*P gpio_loopback_zero[14] I
*CAP
1 gpio_vtrip_sel[14] 7.84011e-05
2 gpio_out[14] 2.90082e-05
3 gpio_holdover[14] 1.48962e-05
4 gpio_dm2[14] 1.54342e-05
5 gpio_analog_sel[14] 2.38817e-05
6 gpio_analog_pol[14] 1.57569e-05
7 gpio_dm0[14] 1.54342e-05
8 gpio_analog_en[14] 1.70227e-05
9 gpio_dm1[14] 4.15522e-05
10 gpio_slow_sel[14] 0.000461339
11 gpio_ib_mode_sel[14] 2.54593e-05
12 gpio_loopback_zero[14] 0.00109916
13 *94:55 0.000786522
14 *94:53 0.000463231
15 *94:51 0.000340589
16 *94:47 0.000859467
17 *94:33 0.000867591
18 *94:31 0.000332448
19 *94:29 0.000306307
20 *94:27 0.000570597
21 *94:25 0.000663125
22 *94:13 0.00130473
23 gpio_analog_pol[14] gpio_inp_dis[14] 2.14465e-05
24 gpio_ib_mode_sel[14] gpio_oeb[14] 2.39886e-05
25 *94:13 gpio_inp_dis[14] 0.000268775
26 *94:13 *235:9 0.00096358
27 *94:47 gpio_inp_dis[14] 0.000940814
*RES
1 gpio_loopback_zero[14] *94:13 11.3602 
2 *94:13 gpio_ib_mode_sel[14] 0.167633 
3 *94:13 *94:25 6.69125 
4 *94:25 *94:27 8.05804 
5 *94:27 *94:29 2.58929 
6 *94:29 *94:31 3 
7 *94:31 *94:33 3 
8 *94:33 *94:47 13.9376 
9 *94:47 *94:51 6.41 
10 *94:51 *94:53 3 
11 *94:53 *94:55 5.46429 
12 *94:55 gpio_slow_sel[14] 11.8809 
13 *94:55 gpio_dm1[14] 3.5416 
14 *94:53 gpio_analog_en[14] 3.5416 
15 *94:51 gpio_dm0[14] 3.5416 
16 *94:47 gpio_analog_pol[14] 0.1316 
17 *94:33 gpio_analog_sel[14] 3.5416 
18 *94:31 gpio_dm2[14] 3.5416 
19 *94:29 gpio_holdover[14] 3.5416 
20 *94:27 gpio_out[14] 3.5416 
21 *94:25 gpio_vtrip_sel[14] 3.75702 
*END

*D_NET *95 0.0138323
*CONN
*P gpio_slow_sel[15] O
*P gpio_dm1[15] O
*P gpio_analog_en[15] O
*P gpio_dm0[15] O
*P gpio_analog_pol[15] O
*P gpio_analog_sel[15] O
*P gpio_dm2[15] O
*P gpio_holdover[15] O
*P gpio_out[15] O
*P gpio_vtrip_sel[15] O
*P gpio_ib_mode_sel[15] O
*P gpio_loopback_zero[15] I
*CAP
1 gpio_slow_sel[15] 0.000426066
2 gpio_dm1[15] 7.39211e-05
3 gpio_analog_en[15] 0.000553554
4 gpio_dm0[15] 0.000281341
5 gpio_analog_pol[15] 0.000719139
6 gpio_analog_sel[15] 0.000719139
7 gpio_dm2[15] 0.000281341
8 gpio_holdover[15] 0.000261245
9 gpio_out[15] 0.000436822
10 gpio_vtrip_sel[15] 0.000450365
11 gpio_ib_mode_sel[15] 0.0017909
12 gpio_loopback_zero[15] 0.00165679
13 *95:83 0.00091287
14 gpio_analog_pol[15] gpio_inp_dis[15] 0.0010624
15 gpio_ib_mode_sel[15] gpio_inp_dis[15] 0.000255335
16 gpio_ib_mode_sel[15] *236:9 0.00298245
17 gpio_out[15] gpio_inp_dis[15] 0.0009686
*RES
1 gpio_loopback_zero[15] gpio_ib_mode_sel[15] 15.9531 
2 gpio_ib_mode_sel[15] gpio_vtrip_sel[15] 2.875 
3 gpio_vtrip_sel[15] gpio_out[15] 8.84405 
4 gpio_out[15] gpio_holdover[15] 2.46429 
5 gpio_holdover[15] gpio_dm2[15] 2.875 
6 gpio_dm2[15] gpio_analog_sel[15] 2.875 
7 gpio_analog_sel[15] gpio_analog_pol[15] 11.4021 
8 gpio_analog_pol[15] gpio_dm0[15] 2.875 
9 gpio_dm0[15] gpio_analog_en[15] 2.875 
10 gpio_analog_en[15] *95:83 5.80458 
11 *95:83 gpio_dm1[15] 4.82071 
12 *95:83 gpio_slow_sel[15] 6.038 
*END

*D_NET *96 0.0110748
*CONN
*P gpio_slow_sel[16] O
*P gpio_dm1[16] O
*P gpio_analog_en[16] O
*P gpio_dm0[16] O
*P gpio_analog_pol[16] O
*P gpio_analog_sel[16] O
*P gpio_dm2[16] O
*P gpio_holdover[16] O
*P gpio_out[16] O
*P gpio_vtrip_sel[16] O
*P gpio_ib_mode_sel[16] O
*P gpio_loopback_zero[16] I
*CAP
1 gpio_slow_sel[16] 0.00042844
2 gpio_dm1[16] 2.31538e-05
3 gpio_analog_en[16] 0.000483066
4 gpio_dm0[16] 0.000281341
5 gpio_analog_pol[16] 0.000811798
6 gpio_analog_sel[16] 0.000811798
7 gpio_dm2[16] 0.000281341
8 gpio_holdover[16] 0.000261245
9 gpio_out[16] 0.000440118
10 gpio_vtrip_sel[16] 0.000460214
11 gpio_ib_mode_sel[16] 0.00151754
12 gpio_loopback_zero[16] 0.00137687
13 *96:79 0.00079399
14 gpio_analog_pol[16] gpio_inp_dis[16] 0.0010624
15 gpio_ib_mode_sel[16] gpio_inp_dis[16] 0.000208314
16 gpio_ib_mode_sel[16] gpio_oeb[16] 0
17 gpio_ib_mode_sel[16] *237:11 0.00105222
18 gpio_out[16] gpio_inp_dis[16] 0.000780998
*RES
1 gpio_loopback_zero[16] gpio_ib_mode_sel[16] 14.8115 
2 gpio_ib_mode_sel[16] gpio_vtrip_sel[16] 2.875 
3 gpio_vtrip_sel[16] gpio_out[16] 9.78792 
4 gpio_out[16] gpio_holdover[16] 2.46429 
5 gpio_holdover[16] gpio_dm2[16] 2.875 
6 gpio_dm2[16] gpio_analog_sel[16] 2.875 
7 gpio_analog_sel[16] gpio_analog_pol[16] 11.1183 
8 gpio_analog_pol[16] gpio_dm0[16] 2.875 
9 gpio_dm0[16] gpio_analog_en[16] 2.875 
10 gpio_analog_en[16] *96:79 4.86708 
11 *96:79 gpio_dm1[16] 3.88321 
12 *96:79 gpio_slow_sel[16] 5.90471 
*END

*D_NET *97 0.0111981
*CONN
*P gpio_slow_sel[17] O
*P gpio_dm1[17] O
*P gpio_analog_en[17] O
*P gpio_dm0[17] O
*P gpio_analog_pol[17] O
*P gpio_analog_sel[17] O
*P gpio_dm2[17] O
*P gpio_holdover[17] O
*P gpio_out[17] O
*P gpio_vtrip_sel[17] O
*P gpio_ib_mode_sel[17] O
*P gpio_loopback_zero[17] I
*CAP
1 gpio_slow_sel[17] 0.000384148
2 gpio_dm1[17] 6.33454e-05
3 gpio_analog_en[17] 0.000605116
4 gpio_dm0[17] 0.000281341
5 gpio_analog_pol[17] 0.000756612
6 gpio_analog_sel[17] 0.000756612
7 gpio_dm2[17] 0.000281341
8 gpio_holdover[17] 0.000261245
9 gpio_out[17] 0.000461193
10 gpio_vtrip_sel[17] 0.000481289
11 gpio_ib_mode_sel[17] 0.00142298
12 gpio_loopback_zero[17] 0.00128231
13 *97:91 0.000911938
14 gpio_analog_pol[17] gpio_inp_dis[17] 0.000671101
15 gpio_ib_mode_sel[17] gpio_inp_dis[17] 0.00021819
16 gpio_ib_mode_sel[17] gpio_oeb[17] 0.00171901
17 gpio_out[17] gpio_inp_dis[17] 0.000640296
*RES
1 gpio_loopback_zero[17] gpio_ib_mode_sel[17] 13.7299 
2 gpio_ib_mode_sel[17] gpio_vtrip_sel[17] 2.875 
3 gpio_vtrip_sel[17] gpio_out[17] 10.8039 
4 gpio_out[17] gpio_holdover[17] 2.46429 
5 gpio_holdover[17] gpio_dm2[17] 2.875 
6 gpio_dm2[17] gpio_analog_sel[17] 2.875 
7 gpio_analog_sel[17] gpio_analog_pol[17] 11.4569 
8 gpio_analog_pol[17] gpio_dm0[17] 2.875 
9 gpio_dm0[17] gpio_analog_en[17] 2.875 
10 gpio_analog_en[17] *97:91 6.082 
11 *97:91 gpio_dm1[17] 4.70464 
12 *97:91 gpio_slow_sel[17] 6.09922 
*END

*D_NET *98 0.011783
*CONN
*P gpio_slow_sel[18] O
*P gpio_dm1[18] O
*P gpio_analog_en[18] O
*P gpio_dm0[18] O
*P gpio_analog_pol[18] O
*P gpio_analog_sel[18] O
*P gpio_dm2[18] O
*P gpio_holdover[18] O
*P gpio_out[18] O
*P gpio_vtrip_sel[18] O
*P gpio_ib_mode_sel[18] O
*P gpio_loopback_zero[18] I
*CAP
1 gpio_slow_sel[18] 0.000478148
2 gpio_dm1[18] 2.31538e-05
3 gpio_analog_en[18] 0.000483066
4 gpio_dm0[18] 0.000264303
5 gpio_analog_pol[18] 2.31538e-05
6 gpio_analog_sel[18] 0.000810156
7 gpio_dm2[18] 0.000281341
8 gpio_holdover[18] 0.000244208
9 gpio_out[18] 2.31538e-05
10 gpio_vtrip_sel[18] 0.000467687
11 gpio_ib_mode_sel[18] 0.00146552
12 gpio_loopback_zero[18] 0.00132485
13 *98:73 0.000843697
14 *98:53 0.000816272
15 *98:27 0.000453707
16 gpio_ib_mode_sel[18] gpio_inp_dis[18] 0.000124389
17 gpio_ib_mode_sel[18] gpio_oeb[18] 0.00167211
18 *98:27 gpio_inp_dis[18] 0.0009686
19 *98:53 gpio_inp_dis[18] 0.0010155
*RES
1 gpio_loopback_zero[18] gpio_ib_mode_sel[18] 14.6126 
2 gpio_ib_mode_sel[18] gpio_vtrip_sel[18] 2.875 
3 gpio_vtrip_sel[18] *98:27 8.78155 
4 *98:27 gpio_out[18] 0.473214 
5 *98:27 gpio_holdover[18] 2.11607 
6 gpio_holdover[18] gpio_dm2[18] 2.875 
7 gpio_dm2[18] gpio_analog_sel[18] 2.875 
8 gpio_analog_sel[18] *98:53 10.0571 
9 *98:53 gpio_analog_pol[18] 0.473214 
10 *98:53 gpio_dm0[18] 2.52679 
11 gpio_dm0[18] gpio_analog_en[18] 2.875 
12 gpio_analog_en[18] *98:73 4.86708 
13 *98:73 gpio_dm1[18] 3.88321 
14 *98:73 gpio_slow_sel[18] 6.2982 
*END

*D_NET *99 0.0138437
*CONN
*P gpio_slow_sel[19] O
*P gpio_dm1[19] O
*P gpio_analog_sel[19] O
*P gpio_analog_en[19] O
*P gpio_dm0[19] O
*P gpio_analog_pol[19] O
*P gpio_dm2[19] O
*P gpio_holdover[19] O
*P gpio_out[19] O
*P gpio_vtrip_sel[19] O
*P gpio_ib_mode_sel[19] O
*P gpio_loopback_zero[19] I
*CAP
1 gpio_slow_sel[19] 0.000414651
2 gpio_dm1[19] 8.39689e-05
3 gpio_analog_sel[19] 2.31538e-05
4 gpio_analog_en[19] 0.000570137
5 gpio_dm0[19] 0.000281341
6 gpio_analog_pol[19] 0.000739691
7 gpio_dm2[19] 0.000264303
8 gpio_holdover[19] 0.000261245
9 gpio_out[19] 0.000447143
10 gpio_vtrip_sel[19] 0.000467239
11 gpio_ib_mode_sel[19] 0.00168301
12 gpio_loopback_zero[19] 0.00154234
13 *99:79 0.000928086
14 *99:41 0.000745807
15 gpio_analog_pol[19] gpio_inp_dis[19] 0.0012031
16 gpio_ib_mode_sel[19] gpio_inp_dis[19] 0.000140702
17 gpio_ib_mode_sel[19] *240:9 0.00331363
18 gpio_out[19] gpio_inp_dis[19] 0.000734097
*RES
1 gpio_loopback_zero[19] gpio_ib_mode_sel[19] 15.7478 
2 gpio_ib_mode_sel[19] gpio_vtrip_sel[19] 2.875 
3 gpio_vtrip_sel[19] gpio_out[19] 10.1266 
4 gpio_out[19] gpio_holdover[19] 2.46429 
5 gpio_holdover[19] gpio_dm2[19] 2.875 
6 gpio_dm2[19] *99:41 2.52679 
7 *99:41 gpio_analog_pol[19] 9.71841 
8 gpio_analog_pol[19] gpio_dm0[19] 2.875 
9 gpio_dm0[19] gpio_analog_en[19] 2.875 
10 *99:41 gpio_analog_sel[19] 0.473214 
11 gpio_analog_en[19] *99:79 6.00994 
12 *99:79 gpio_dm1[19] 5.02607 
13 *99:79 gpio_slow_sel[19] 6.17129 
*END

*D_NET *100 0.0107876
*CONN
*P gpio_oeb[1] O
*P gpio_ib_mode_sel[1] O
*P gpio_vtrip_sel[1] O
*P gpio_holdover[1] O
*P gpio_analog_sel[1] O
*P gpio_inp_dis[1] O
*P gpio_analog_pol[1] O
*P gpio_analog_en[1] O
*P gpio_slow_sel[1] O
*P gpio_loopback_zero[1] I
*CAP
1 gpio_oeb[1] 2.92089e-05
2 gpio_ib_mode_sel[1] 1.54342e-05
3 gpio_vtrip_sel[1] 2.63731e-05
4 gpio_holdover[1] 2.82117e-05
5 gpio_analog_sel[1] 3.95507e-05
6 gpio_inp_dis[1] 2.90082e-05
7 gpio_analog_pol[1] 2.5238e-05
8 gpio_analog_en[1] 3.52427e-05
9 gpio_slow_sel[1] 0.000763495
10 gpio_loopback_zero[1] 0.00114521
11 *100:39 0.00110796
12 *100:35 0.000471434
13 *100:33 0.000726645
14 *100:31 0.000909434
15 *100:27 0.000811032
16 *100:13 0.000654408
17 *100:11 0.000332448
18 *100:9 0.00133699
19 gpio_analog_en[1] gpio_dm0[1] 1.58705e-05
20 gpio_analog_en[1] gpio_dm1[1] 0
21 gpio_analog_pol[1] gpio_dm0[1] 1.86796e-05
22 gpio_analog_sel[1] gpio_dm2[1] 1.86796e-05
23 gpio_holdover[1] gpio_dm2[1] 1.3354e-05
24 gpio_holdover[1] gpio_out[1] 1.83579e-05
25 gpio_slow_sel[1] gpio_dm0[1] 3.15419e-06
26 gpio_slow_sel[1] gpio_dm1[1] 0.000468171
27 *100:9 *134:9 0.00043421
28 *100:27 gpio_dm2[1] 1.06346e-05
29 *100:27 gpio_out[1] 7.63414e-06
30 *100:27 *134:9 0.000673426
31 *100:27 *134:11 0.000229584
32 *100:33 *134:13 0.0003885
*RES
1 gpio_loopback_zero[1] *100:9 25.3184 
2 *100:9 *100:11 3 
3 *100:11 *100:13 3 
4 *100:13 *100:27 12.9682 
5 *100:27 *100:31 9.285 
6 *100:31 *100:33 11.2143 
7 *100:33 *100:35 2.58929 
8 *100:35 *100:39 9.285 
9 *100:39 gpio_slow_sel[1] 17.0981 
10 *100:39 gpio_analog_en[1] 0.1316 
11 *100:35 gpio_analog_pol[1] 3.5416 
12 *100:33 gpio_inp_dis[1] 3.5416 
13 *100:31 gpio_analog_sel[1] 3.5416 
14 *100:27 gpio_holdover[1] 0.1316 
15 *100:13 gpio_vtrip_sel[1] 3.5416 
16 *100:11 gpio_ib_mode_sel[1] 3.5416 
17 *100:9 gpio_oeb[1] 3.5416 
*END

*D_NET *101 0.0134211
*CONN
*P gpio_slow_sel[20] O
*P gpio_dm1[20] O
*P gpio_analog_en[20] O
*P gpio_dm0[20] O
*P gpio_analog_pol[20] O
*P gpio_analog_sel[20] O
*P gpio_dm2[20] O
*P gpio_holdover[20] O
*P gpio_out[20] O
*P gpio_vtrip_sel[20] O
*P gpio_ib_mode_sel[20] O
*P gpio_loopback_zero[20] I
*CAP
1 gpio_slow_sel[20] 0.000575398
2 gpio_dm1[20] 7.33933e-05
3 gpio_analog_en[20] 0.000374959
4 gpio_dm0[20] 0.000281341
5 gpio_analog_pol[20] 0.000768097
6 gpio_analog_sel[20] 0.000768097
7 gpio_dm2[20] 0.000281341
8 gpio_holdover[20] 0.000261245
9 gpio_out[20] 0.000424603
10 gpio_vtrip_sel[20] 0.000444699
11 gpio_ib_mode_sel[20] 0.00171273
12 gpio_loopback_zero[20] 0.00157206
13 *101:72 0.00088308
14 gpio_analog_pol[20] gpio_inp_dis[20] 0.0009686
15 gpio_ib_mode_sel[20] gpio_inp_dis[20] 0.000124389
16 gpio_ib_mode_sel[20] gpio_oeb[20] 0.00293843
17 gpio_out[20] gpio_inp_dis[20] 0.0009686
*RES
1 gpio_loopback_zero[20] gpio_ib_mode_sel[20] 16.0035 
2 gpio_ib_mode_sel[20] gpio_vtrip_sel[20] 2.875 
3 gpio_vtrip_sel[20] gpio_out[20] 8.57619 
4 gpio_out[20] gpio_holdover[20] 2.46429 
5 gpio_holdover[20] gpio_dm2[20] 2.875 
6 gpio_dm2[20] gpio_analog_sel[20] 2.875 
7 gpio_analog_sel[20] gpio_analog_pol[20] 11.4021 
8 gpio_analog_pol[20] gpio_dm0[20] 2.875 
9 gpio_dm0[20] gpio_analog_en[20] 2.875 
10 gpio_analog_en[20] *101:72 4.7121 
11 *101:72 gpio_dm1[20] 4.91 
12 *101:72 gpio_slow_sel[20] 6.39833 
*END

*D_NET *102 0.0137939
*CONN
*P gpio_slow_sel[21] O
*P gpio_dm1[21] O
*P gpio_analog_en[21] O
*P gpio_dm0[21] O
*P gpio_analog_pol[21] O
*P gpio_analog_sel[21] O
*P gpio_dm2[21] O
*P gpio_holdover[21] O
*P gpio_out[21] O
*P gpio_vtrip_sel[21] O
*P gpio_ib_mode_sel[21] O
*P gpio_loopback_zero[21] I
*CAP
1 gpio_slow_sel[21] 0.000438488
2 gpio_dm1[21] 1.3106e-05
3 gpio_analog_en[21] 0.000464975
4 gpio_dm0[21] 0.000281341
5 gpio_analog_pol[21] 0.000722949
6 gpio_analog_sel[21] 0.000722949
7 gpio_dm2[21] 0.000281341
8 gpio_holdover[21] 0.000254255
9 gpio_out[21] 1.3106e-05
10 gpio_vtrip_sel[21] 0.000506421
11 gpio_ib_mode_sel[21] 0.00167216
12 gpio_loopback_zero[21] 0.00153149
13 *102:93 0.000775898
14 *102:37 0.000492442
15 gpio_analog_pol[21] gpio_inp_dis[21] 0.0010155
16 gpio_analog_sel[21] gpio_inp_dis[21] 0.000225219
17 gpio_dm2[21] gpio_inp_dis[21] 0.000225219
18 gpio_ib_mode_sel[21] gpio_inp_dis[21] 0.000402912
19 gpio_ib_mode_sel[21] *242:9 0.00270392
20 gpio_vtrip_sel[21] gpio_inp_dis[21] 0.000225219
21 *102:37 gpio_inp_dis[21] 0.000825017
*RES
1 gpio_loopback_zero[21] gpio_ib_mode_sel[21] 15.8422 
2 gpio_ib_mode_sel[21] gpio_vtrip_sel[21] 2.875 
3 gpio_vtrip_sel[21] *102:37 10.3243 
4 *102:37 gpio_out[21] 0.267857 
5 *102:37 gpio_holdover[21] 2.32143 
6 gpio_holdover[21] gpio_dm2[21] 2.875 
7 gpio_dm2[21] gpio_analog_sel[21] 2.875 
8 gpio_analog_sel[21] gpio_analog_pol[21] 11.4021 
9 gpio_analog_pol[21] gpio_dm0[21] 2.875 
10 gpio_dm0[21] gpio_analog_en[21] 2.875 
11 gpio_analog_en[21] *102:93 4.66172 
12 *102:93 gpio_dm1[21] 3.67786 
13 *102:93 gpio_slow_sel[21] 6.11007 
*END

*D_NET *103 0.0135857
*CONN
*P gpio_slow_sel[22] O
*P gpio_dm1[22] O
*P gpio_analog_en[22] O
*P gpio_dm0[22] O
*P gpio_analog_pol[22] O
*P gpio_analog_sel[22] O
*P gpio_dm2[22] O
*P gpio_holdover[22] O
*P gpio_out[22] O
*P gpio_vtrip_sel[22] O
*P gpio_ib_mode_sel[22] O
*P gpio_loopback_zero[22] I
*CAP
1 gpio_slow_sel[22] 0.000427073
2 gpio_dm1[22] 2.31538e-05
3 gpio_analog_en[22] 0.000483066
4 gpio_dm0[22] 0.000281341
5 gpio_analog_pol[22] 0.000768863
6 gpio_analog_sel[22] 0.000768863
7 gpio_dm2[22] 0.000281341
8 gpio_holdover[22] 0.000261245
9 gpio_out[22] 0.000440118
10 gpio_vtrip_sel[22] 0.000443176
11 gpio_ib_mode_sel[22] 2.31538e-05
12 gpio_loopback_zero[22] 0.00149721
13 *103:87 0.000792623
14 *103:11 0.001644
15 gpio_analog_pol[22] gpio_inp_dis[22] 0.0011093
16 gpio_analog_sel[22] gpio_inp_dis[22] 0.000225219
17 gpio_dm2[22] gpio_inp_dis[22] 0.000225219
18 gpio_out[22] gpio_inp_dis[22] 0.000780998
19 *103:11 gpio_inp_dis[22] 0.000265091
20 *103:11 *243:9 0.00284463
*RES
1 gpio_loopback_zero[22] *103:11 14.8422 
2 *103:11 gpio_ib_mode_sel[22] 0.473214 
3 *103:11 gpio_vtrip_sel[22] 2.52679 
4 gpio_vtrip_sel[22] gpio_out[22] 9.78792 
5 gpio_out[22] gpio_holdover[22] 2.46429 
6 gpio_holdover[22] gpio_dm2[22] 2.875 
7 gpio_dm2[22] gpio_analog_sel[22] 2.875 
8 gpio_analog_sel[22] gpio_analog_pol[22] 10.248 
9 gpio_analog_pol[22] gpio_dm0[22] 2.875 
10 gpio_dm0[22] gpio_analog_en[22] 2.875 
11 gpio_analog_en[22] *103:87 4.86708 
12 *103:87 gpio_dm1[22] 3.88321 
13 *103:87 gpio_slow_sel[22] 6.24336 
*END

*D_NET *104 0.0124278
*CONN
*P gpio_slow_sel[23] O
*P gpio_dm1[23] O
*P gpio_analog_en[23] O
*P gpio_dm0[23] O
*P gpio_analog_sel[23] O
*P gpio_analog_pol[23] O
*P gpio_dm2[23] O
*P gpio_holdover[23] O
*P gpio_out[23] O
*P gpio_vtrip_sel[23] O
*P gpio_ib_mode_sel[23] O
*P gpio_loopback_zero[23] I
*CAP
1 gpio_slow_sel[23] 0.000489214
2 gpio_dm1[23] 4.92045e-05
3 gpio_analog_en[23] 0.000478179
4 gpio_dm0[23] 0.000281341
5 gpio_analog_sel[23] 6.08151e-05
6 gpio_analog_pol[23] 0.000792121
7 gpio_dm2[23] 0.000262145
8 gpio_holdover[23] 0.000261245
9 gpio_out[23] 0.000461193
10 gpio_vtrip_sel[23] 0.000481289
11 gpio_ib_mode_sel[23] 0.00169186
12 gpio_loopback_zero[23] 0.00155119
13 *104:93 0.000875928
14 *104:47 0.000833741
15 gpio_analog_pol[23] gpio_inp_dis[23] 0.000671101
16 gpio_ib_mode_sel[23] gpio_inp_dis[23] 7.7488e-05
17 gpio_ib_mode_sel[23] gpio_oeb[23] 0.00246942
18 gpio_out[23] gpio_inp_dis[23] 0.000640296
*RES
1 gpio_loopback_zero[23] gpio_ib_mode_sel[23] 14.955 
2 gpio_ib_mode_sel[23] gpio_vtrip_sel[23] 2.875 
3 gpio_vtrip_sel[23] gpio_out[23] 10.8039 
4 gpio_out[23] gpio_holdover[23] 2.46429 
5 gpio_holdover[23] gpio_dm2[23] 2.875 
6 gpio_dm2[23] *104:47 2.52679 
7 *104:47 gpio_analog_pol[23] 9.71841 
8 *104:47 gpio_analog_sel[23] 1.20536 
9 gpio_analog_pol[23] gpio_dm0[23] 2.875 
10 gpio_dm0[23] gpio_analog_en[23] 2.875 
11 gpio_analog_en[23] *104:93 5.79374 
12 *104:93 gpio_dm1[23] 4.61536 
13 *104:93 gpio_slow_sel[23] 6.04884 
*END

*D_NET *105 0.0116129
*CONN
*P gpio_dm2[24] O
*P gpio_slow_sel[24] O
*P gpio_dm1[24] O
*P gpio_analog_en[24] O
*P gpio_dm0[24] O
*P gpio_analog_pol[24] O
*P gpio_analog_sel[24] O
*P gpio_holdover[24] O
*P gpio_out[24] O
*P gpio_vtrip_sel[24] O
*P gpio_ib_mode_sel[24] O
*P gpio_loopback_zero[24] I
*CAP
1 gpio_dm2[24] 8.14032e-05
2 gpio_slow_sel[24] 0.000470403
3 gpio_dm1[24] 3.08271e-05
4 gpio_analog_en[24] 2.25357e-05
5 gpio_dm0[24] 1.54496e-05
6 gpio_analog_pol[24] 2.50544e-05
7 gpio_analog_sel[24] 3.50957e-05
8 gpio_holdover[24] 1.52483e-05
9 gpio_out[24] 3.39346e-05
10 gpio_vtrip_sel[24] 2.92343e-05
11 gpio_ib_mode_sel[24] 1.03439e-05
12 gpio_loopback_zero[24] 0.00176851
13 *105:117 0.000784861
14 *105:107 0.000468744
15 *105:97 0.000332463
16 *105:87 0.000869335
17 *105:77 0.00093846
18 *105:61 0.000457501
19 *105:51 0.000322941
20 *105:41 0.000601196
21 *105:31 0.000605817
22 *105:21 0.00193329
23 gpio_analog_pol[24] gpio_inp_dis[24] 2.14382e-05
24 *105:21 gpio_inp_dis[24] 7.41173e-05
25 *105:21 gpio_oeb[24] 2.71351e-05
26 *105:21 *245:13 0.00124341
27 *105:41 gpio_inp_dis[24] 0.000274226
28 *105:77 gpio_inp_dis[24] 0.000119923
*RES
1 gpio_loopback_zero[24] *105:21 18.7415 
2 *105:21 gpio_ib_mode_sel[24] 3.5416 
3 *105:21 *105:31 3 
4 *105:31 gpio_vtrip_sel[24] 3.5416 
5 *105:31 *105:41 8.33929 
6 *105:41 gpio_out[24] 3.5416 
7 *105:41 *105:51 2.58929 
8 *105:51 gpio_holdover[24] 3.5416 
9 *105:51 *105:61 3 
10 *105:61 *105:77 12.62 
11 *105:77 gpio_analog_sel[24] 0.1316 
12 *105:77 *105:87 17.0886 
13 *105:87 gpio_analog_pol[24] 3.5416 
14 *105:87 *105:97 3 
15 *105:97 gpio_dm0[24] 3.5416 
16 *105:97 *105:107 3 
17 *105:107 gpio_analog_en[24] 3.5416 
18 *105:107 *105:117 5.46429 
19 *105:117 gpio_dm1[24] 3.5416 
20 *105:117 gpio_slow_sel[24] 11.8809 
21 *105:61 gpio_dm2[24] 4.14938 
*END

*D_NET *106 0.0132149
*CONN
*P gpio_ib_mode_sel[25] O
*P gpio_slow_sel[25] O
*P gpio_dm1[25] O
*P gpio_analog_en[25] O
*P gpio_dm0[25] O
*P gpio_analog_pol[25] O
*P gpio_analog_sel[25] O
*P gpio_dm2[25] O
*P gpio_holdover[25] O
*P gpio_out[25] O
*P gpio_vtrip_sel[25] O
*P gpio_loopback_zero[25] I
*CAP
1 gpio_ib_mode_sel[25] 8.97385e-05
2 gpio_slow_sel[25] 0.000555934
3 gpio_dm1[25] 9.71363e-05
4 gpio_analog_en[25] 4.71023e-05
5 gpio_dm0[25] 5.48336e-05
6 gpio_analog_pol[25] 4.11338e-05
7 gpio_analog_sel[25] 2.92343e-05
8 gpio_dm2[25] 1.54496e-05
9 gpio_holdover[25] 1.52483e-05
10 gpio_out[25] 3.39346e-05
11 gpio_vtrip_sel[25] 3.30128e-05
12 gpio_loopback_zero[25] 0.00202975
13 *106:121 0.00101066
14 *106:103 0.000578305
15 *106:89 0.000391976
16 *106:75 0.000910787
17 *106:63 0.000897937
18 *106:53 0.000340604
19 *106:43 0.0003148
20 *106:33 0.000585002
21 *106:23 0.000675597
22 *106:9 0.00234798
23 gpio_analog_pol[25] gpio_inp_dis[25] 2.75168e-05
24 gpio_ib_mode_sel[25] gpio_oeb[25] 1.33458e-05
25 *106:9 *246:9 0.00107415
26 *106:23 gpio_inp_dis[25] 0.000327497
27 *106:23 gpio_oeb[25] 1.61892e-05
28 *106:33 gpio_inp_dis[25] 0.000294392
29 *106:75 gpio_inp_dis[25] 0.000365645
*RES
1 gpio_loopback_zero[25] *106:9 43.4255 
2 *106:9 *106:23 11.1536 
3 *106:23 gpio_vtrip_sel[25] 0.1316 
4 *106:23 *106:33 11.7493 
5 *106:33 gpio_out[25] 3.5416 
6 *106:33 *106:43 2.58929 
7 *106:43 gpio_holdover[25] 3.5416 
8 *106:43 *106:53 3 
9 *106:53 gpio_dm2[25] 3.5416 
10 *106:53 *106:63 3 
11 *106:63 gpio_analog_sel[25] 3.5416 
12 *106:63 *106:75 17.0886 
13 *106:75 gpio_analog_pol[25] 0.167633 
14 *106:75 *106:89 3.92465 
15 *106:89 gpio_dm0[25] 3.70845 
16 *106:89 *106:103 0.579667 
17 *106:103 gpio_analog_en[25] 3.68025 
18 *106:103 *106:121 1.23062 
19 *106:121 gpio_dm1[25] 3.72177 
20 *106:121 gpio_slow_sel[25] 5.2101 
21 *106:9 gpio_ib_mode_sel[25] 4.57285 
*END

*D_NET *107 0.0132237
*CONN
*P gpio_slow_sel[26] O
*P gpio_dm1[26] O
*P gpio_analog_en[26] O
*P gpio_dm0[26] O
*P gpio_analog_pol[26] O
*P gpio_analog_sel[26] O
*P gpio_dm2[26] O
*P gpio_holdover[26] O
*P gpio_out[26] O
*P gpio_vtrip_sel[26] O
*P gpio_ib_mode_sel[26] O
*P gpio_loopback_zero[26] I
*CAP
1 gpio_slow_sel[26] 0.000538976
2 gpio_dm1[26] 6.61623e-05
3 gpio_analog_en[26] 5.26029e-05
4 gpio_dm0[26] 3.38864e-05
5 gpio_analog_pol[26] 7.4754e-05
6 gpio_analog_sel[26] 9.03204e-05
7 gpio_dm2[26] 6.02931e-05
8 gpio_holdover[26] 2.1397e-05
9 gpio_out[26] 4.18671e-05
10 gpio_vtrip_sel[26] 3.67571e-05
11 gpio_ib_mode_sel[26] 7.388e-05
12 gpio_loopback_zero[26] 0.00173308
13 *107:115 0.000915943
14 *107:105 0.000553268
15 *107:95 0.000413606
16 *107:85 0.000924499
17 *107:75 0.000874699
18 *107:65 0.000365639
19 *107:53 0.000339225
20 *107:41 0.000600988
21 *107:31 0.00058593
22 *107:19 0.00193399
23 gpio_analog_pol[26] gpio_inp_dis[26] 2.14382e-05
24 gpio_ib_mode_sel[26] gpio_oeb[26] 1.78312e-05
25 *107:19 gpio_inp_dis[26] 0.000172947
26 *107:19 *247:9 0.00137228
27 *107:41 gpio_inp_dis[26] 0.0002652
28 *107:65 gpio_inp_dis[26] 0.000265632
29 *107:75 gpio_inp_dis[26] 0.000239015
30 *107:85 gpio_inp_dis[26] 0.000537636
*RES
1 gpio_loopback_zero[26] *107:19 18.2999 
2 *107:19 gpio_ib_mode_sel[26] 4.36749 
3 *107:19 *107:31 2.29911 
4 *107:31 gpio_vtrip_sel[26] 3.5416 
5 *107:31 *107:41 8.33929 
6 *107:41 gpio_out[26] 3.5416 
7 *107:41 *107:53 5.99929 
8 *107:53 gpio_holdover[26] 0.1316 
9 *107:53 *107:65 4.18863 
10 *107:65 gpio_dm2[26] 3.72177 
11 *107:65 *107:75 0.551467 
12 *107:75 gpio_analog_sel[26] 3.72177 
13 *107:75 *107:85 2.4252 
14 *107:85 gpio_analog_pol[26] 3.72177 
15 *107:85 *107:95 0.551467 
16 *107:95 gpio_dm0[26] 3.72177 
17 *107:95 *107:105 0.551467 
18 *107:105 gpio_analog_en[26] 3.72177 
19 *107:105 *107:115 0.983867 
20 *107:115 gpio_dm1[26] 3.72177 
21 *107:115 gpio_slow_sel[26] 5.2101 
*END

*D_NET *108 0.0130475
*CONN
*P gpio_slow_sel[27] O
*P gpio_dm1[27] O
*P gpio_analog_en[27] O
*P gpio_dm0[27] O
*P gpio_analog_pol[27] O
*P gpio_analog_sel[27] O
*P gpio_dm2[27] O
*P gpio_holdover[27] O
*P gpio_out[27] O
*P gpio_vtrip_sel[27] O
*P gpio_ib_mode_sel[27] O
*P gpio_loopback_zero[27] I
*CAP
1 gpio_slow_sel[27] 0.000469885
2 gpio_dm1[27] 5.40879e-05
3 gpio_analog_en[27] 1.96863e-05
4 gpio_dm0[27] 1.54496e-05
5 gpio_analog_pol[27] 2.50544e-05
6 gpio_analog_sel[27] 4.2403e-05
7 gpio_dm2[27] 2.38968e-05
8 gpio_holdover[27] 2.34608e-05
9 gpio_out[27] 4.19776e-05
10 gpio_vtrip_sel[27] 4.2403e-05
11 gpio_ib_mode_sel[27] 3.22332e-05
12 gpio_loopback_zero[27] 0.00161248
13 *108:117 0.000974729
14 *108:97 0.000624879
15 *108:87 0.000332463
16 *108:77 0.000885617
17 *108:67 0.000894825
18 *108:57 0.00034091
19 *108:47 0.000331153
20 *108:37 0.000609239
21 *108:27 0.000618986
22 *108:17 0.00179915
23 gpio_analog_pol[27] gpio_inp_dis[27] 2.14382e-05
24 gpio_ib_mode_sel[27] gpio_oeb[27] 8.39203e-06
25 *108:17 gpio_inp_dis[27] 0.000223608
26 *108:17 gpio_oeb[27] 6.85458e-06
27 *108:17 *248:13 0.00228004
28 *108:37 gpio_inp_dis[27] 0.00029666
29 *108:77 gpio_inp_dis[27] 0.000395558
*RES
1 gpio_loopback_zero[27] *108:17 18.0747 
2 *108:17 gpio_ib_mode_sel[27] 3.5416 
3 *108:17 *108:27 3 
4 *108:27 gpio_vtrip_sel[27] 3.5416 
5 *108:27 *108:37 8.33929 
6 *108:37 gpio_out[27] 3.5416 
7 *108:37 *108:47 2.58929 
8 *108:47 gpio_holdover[27] 3.5416 
9 *108:47 *108:57 3 
10 *108:57 gpio_dm2[27] 3.5416 
11 *108:57 *108:67 3 
12 *108:67 gpio_analog_sel[27] 3.5416 
13 *108:67 *108:77 13.6786 
14 *108:77 gpio_analog_pol[27] 3.5416 
15 *108:77 *108:87 3 
16 *108:87 gpio_dm0[27] 3.5416 
17 *108:87 *108:97 3 
18 *108:97 gpio_analog_en[27] 3.5416 
19 *108:97 *108:117 9.03521 
20 *108:117 gpio_dm1[27] 3.63325 
21 *108:117 gpio_slow_sel[27] 5.06832 
*END

*D_NET *109 0.0120355
*CONN
*P gpio_slow_sel[28] O
*P gpio_dm1[28] O
*P gpio_analog_en[28] O
*P gpio_dm0[28] O
*P gpio_analog_pol[28] O
*P gpio_analog_sel[28] O
*P gpio_dm2[28] O
*P gpio_holdover[28] O
*P gpio_out[28] O
*P gpio_ib_mode_sel[28] O
*P gpio_vtrip_sel[28] O
*P gpio_loopback_zero[28] I
*CAP
1 gpio_slow_sel[28] 0.000470403
2 gpio_dm1[28] 3.08271e-05
3 gpio_analog_en[28] 2.25357e-05
4 gpio_dm0[28] 1.54496e-05
5 gpio_analog_pol[28] 2.50544e-05
6 gpio_analog_sel[28] 2.86753e-05
7 gpio_dm2[28] 1.81346e-05
8 gpio_holdover[28] 1.52483e-05
9 gpio_out[28] 3.39346e-05
10 gpio_ib_mode_sel[28] 0.000182257
11 gpio_vtrip_sel[28] 2.41285e-05
12 gpio_loopback_zero[28] 0.00179944
13 *109:123 0.000776721
14 *109:113 0.000460603
15 *109:103 0.000340604
16 *109:93 0.000893757
17 *109:83 0.000951202
18 *109:61 0.000397112
19 *109:49 0.0003148
20 *109:39 0.000593055
21 *109:27 0.000604403
22 *109:19 0.00182357
23 gpio_analog_pol[28] gpio_inp_dis[28] 2.14382e-05
24 gpio_ib_mode_sel[28] gpio_oeb[28] 2.17773e-05
25 *109:19 gpio_inp_dis[28] 0.000189962
26 *109:19 *249:13 0.00115271
27 *109:39 gpio_inp_dis[28] 0.000274226
28 *109:83 gpio_inp_dis[28] 0.000187834
29 *109:93 gpio_inp_dis[28] 0.000365645
*RES
1 gpio_loopback_zero[28] *109:19 14.933 
2 *109:19 gpio_vtrip_sel[28] 0.1316 
3 *109:19 *109:27 3.41 
4 *109:27 gpio_ib_mode_sel[28] 6.5416 
5 *109:27 *109:39 8.33929 
6 *109:39 gpio_out[28] 3.5416 
7 *109:39 *109:49 2.58929 
8 *109:49 gpio_holdover[28] 3.5416 
9 *109:49 *109:61 6.41 
10 *109:61 gpio_dm2[28] 0.1316 
11 *109:61 *109:83 11.7931 
12 *109:83 gpio_analog_sel[28] 3.5416 
13 *109:83 *109:93 13.6786 
14 *109:93 gpio_analog_pol[28] 3.5416 
15 *109:93 *109:103 3 
16 *109:103 gpio_dm0[28] 3.5416 
17 *109:103 *109:113 3 
18 *109:113 gpio_analog_en[28] 3.5416 
19 *109:113 *109:123 5.46429 
20 *109:123 gpio_dm1[28] 3.5416 
21 *109:123 gpio_slow_sel[28] 11.8809 
*END

*D_NET *110 0.0128699
*CONN
*P gpio_slow_sel[29] O
*P gpio_dm1[29] O
*P gpio_analog_en[29] O
*P gpio_dm0[29] O
*P gpio_analog_pol[29] O
*P gpio_analog_sel[29] O
*P gpio_dm2[29] O
*P gpio_holdover[29] O
*P gpio_out[29] O
*P gpio_vtrip_sel[29] O
*P gpio_ib_mode_sel[29] O
*P gpio_loopback_zero[29] I
*CAP
1 gpio_slow_sel[29] 0.000555934
2 gpio_dm1[29] 6.61623e-05
3 gpio_analog_en[29] 6.28011e-05
4 gpio_dm0[29] 1.54496e-05
5 gpio_analog_pol[29] 3.27482e-05
6 gpio_analog_sel[29] 5.16326e-05
7 gpio_dm2[29] 2.7811e-05
8 gpio_holdover[29] 2.73661e-05
9 gpio_out[29] 5.60892e-05
10 gpio_vtrip_sel[29] 5.16326e-05
11 gpio_ib_mode_sel[29] 2.10318e-05
12 gpio_loopback_zero[29] 0.00168529
13 *110:117 0.000932901
14 *110:107 0.000619079
15 *110:95 0.00041225
16 *110:83 0.000678274
17 *110:71 0.000651313
18 *110:61 0.000230712
19 *110:51 0.000212297
20 *110:41 0.000410119
21 *110:31 0.000423632
22 *110:21 0.0018118
23 gpio_analog_pol[29] gpio_inp_dis[29] 2.14382e-05
24 *110:21 gpio_inp_dis[29] 0.000101284
25 *110:21 gpio_oeb[29] 3.11708e-05
26 *110:21 *250:17 0.0012148
27 *110:31 gpio_inp_dis[29] 0.000229844
28 *110:41 gpio_inp_dis[29] 0.000668384
29 *110:51 gpio_inp_dis[29] 0.000198472
30 *110:61 gpio_inp_dis[29] 0.000233255
31 *110:71 gpio_inp_dis[29] 0.000229844
32 *110:83 gpio_inp_dis[29] 0.000905046
*RES
1 gpio_loopback_zero[29] *110:21 18.7853 
2 *110:21 gpio_ib_mode_sel[29] 3.61367 
3 *110:21 *110:31 3 
4 *110:31 gpio_vtrip_sel[29] 3.61367 
5 *110:31 *110:41 8.33929 
6 *110:41 gpio_out[29] 3.61367 
7 *110:41 *110:51 2.58929 
8 *110:51 gpio_holdover[29] 3.61367 
9 *110:51 *110:61 3 
10 *110:61 gpio_dm2[29] 3.61367 
11 *110:61 *110:71 3 
12 *110:71 gpio_analog_sel[29] 3.61367 
13 *110:71 *110:83 14.2143 
14 *110:83 gpio_analog_pol[29] 3.5416 
15 *110:83 *110:95 6.41 
16 *110:95 gpio_dm0[29] 0.1316 
17 *110:95 *110:107 4.18863 
18 *110:107 gpio_analog_en[29] 3.72177 
19 *110:107 *110:117 0.983867 
20 *110:117 gpio_dm1[29] 3.72177 
21 *110:117 gpio_slow_sel[29] 5.2101 
*END

*D_NET *111 0.0116002
*CONN
*P gpio_ib_mode_sel[2] O
*P gpio_vtrip_sel[2] O
*P gpio_holdover[2] O
*P gpio_analog_sel[2] O
*P gpio_analog_en[2] O
*P gpio_slow_sel[2] O
*P gpio_dm0[2] O
*P gpio_analog_pol[2] O
*P gpio_oeb[2] O
*P gpio_loopback_zero[2] I
*CAP
1 gpio_ib_mode_sel[2] 2.38044e-05
2 gpio_vtrip_sel[2] 4.24177e-05
3 gpio_holdover[2] 4.64181e-05
4 gpio_analog_sel[2] 5.43619e-05
5 gpio_analog_en[2] 4.18636e-05
6 gpio_slow_sel[2] 0.000737178
7 gpio_dm0[2] 0.00018432
8 gpio_analog_pol[2] 6.37674e-05
9 gpio_oeb[2] 7.44641e-05
10 gpio_loopback_zero[2] 0.00106906
11 *111:75 0.000901053
12 *111:59 0.000592462
13 *111:45 0.00105469
14 *111:39 0.00107652
15 *111:37 0.00092325
16 *111:35 0.000764464
17 *111:33 0.000346962
18 *111:19 0.0013041
19 gpio_analog_en[2] gpio_dm1[2] 0
20 gpio_analog_pol[2] gpio_inp_dis[2] 1.0024e-05
21 gpio_analog_sel[2] gpio_dm2[2] 1.39027e-05
22 gpio_holdover[2] gpio_dm2[2] 1.54231e-05
23 gpio_holdover[2] gpio_out[2] 1.65123e-05
24 *111:19 *138:13 0.00114566
25 *111:37 *138:13 0.00029666
26 *111:45 gpio_inp_dis[2] 9.33184e-06
27 *111:45 *138:15 0.000420283
28 *111:59 gpio_dm1[2] 0.000371286
*RES
1 gpio_loopback_zero[2] *111:19 24.4099 
2 *111:19 gpio_oeb[2] 0.257717 
3 *111:19 *111:33 6.2475 
4 *111:33 *111:35 3 
5 *111:35 *111:37 10.8036 
6 *111:37 *111:39 5.875 
7 *111:39 *111:45 16.8993 
8 *111:45 gpio_analog_pol[2] 0.262417 
9 *111:45 *111:59 7.61273 
10 *111:59 gpio_dm0[2] 0.743383 
11 *111:59 *111:75 5.39035 
12 *111:75 gpio_slow_sel[2] 17.2202 
13 *111:75 gpio_analog_en[2] 3.5416 
14 *111:39 gpio_analog_sel[2] 3.5416 
15 *111:37 gpio_holdover[2] 3.5416 
16 *111:35 gpio_vtrip_sel[2] 3.5416 
17 *111:33 gpio_ib_mode_sel[2] 3.5416 
*END

*D_NET *112 0.0122899
*CONN
*P gpio_slow_sel[30] O
*P gpio_dm1[30] O
*P gpio_analog_en[30] O
*P gpio_dm0[30] O
*P gpio_analog_pol[30] O
*P gpio_analog_sel[30] O
*P gpio_dm2[30] O
*P gpio_holdover[30] O
*P gpio_out[30] O
*P gpio_vtrip_sel[30] O
*P gpio_ib_mode_sel[30] O
*P gpio_loopback_zero[30] I
*CAP
1 gpio_slow_sel[30] 0.000470403
2 gpio_dm1[30] 3.08271e-05
3 gpio_analog_en[30] 2.25357e-05
4 gpio_dm0[30] 1.54496e-05
5 gpio_analog_pol[30] 3.33678e-05
6 gpio_analog_sel[30] 3.72972e-05
7 gpio_dm2[30] 2.7149e-05
8 gpio_holdover[30] 2.34608e-05
9 gpio_out[30] 4.19776e-05
10 gpio_vtrip_sel[30] 4.28401e-05
11 gpio_ib_mode_sel[30] 0.000164789
12 gpio_loopback_zero[30] 0.00163718
13 *112:115 0.000784861
14 *112:105 0.000460603
15 *112:95 0.000332463
16 *112:85 0.00089393
17 *112:75 0.000897859
18 *112:65 0.000435043
19 *112:49 0.000413893
20 *112:37 0.000609239
21 *112:27 0.000510348
22 *112:15 0.00184733
23 gpio_analog_pol[30] gpio_inp_dis[30] 1.65147e-05
24 gpio_ib_mode_sel[30] gpio_oeb[30] 1.30543e-05
25 *112:15 gpio_inp_dis[30] 0.000527657
26 *112:15 *251:13 0.00114338
27 *112:37 gpio_inp_dis[30] 0.00029666
28 *112:65 gpio_inp_dis[30] 0.000139478
29 *112:85 gpio_inp_dis[30] 0.000420283
*RES
1 gpio_loopback_zero[30] *112:15 17.2784 
2 *112:15 gpio_ib_mode_sel[30] 5.93892 
3 *112:15 *112:27 0.727679 
4 *112:27 gpio_vtrip_sel[30] 3.5416 
5 *112:27 *112:37 8.33929 
6 *112:37 gpio_out[30] 3.5416 
7 *112:37 *112:49 5.99929 
8 *112:49 gpio_holdover[30] 0.1316 
9 *112:49 *112:65 7.8258 
10 *112:65 gpio_dm2[30] 0.1316 
11 *112:65 *112:75 6.41 
12 *112:75 gpio_analog_sel[30] 3.5416 
13 *112:75 *112:85 13.6786 
14 *112:85 gpio_analog_pol[30] 3.5416 
15 *112:85 *112:95 3 
16 *112:95 gpio_dm0[30] 3.5416 
17 *112:95 *112:105 3 
18 *112:105 gpio_analog_en[30] 3.5416 
19 *112:105 *112:115 5.46429 
20 *112:115 gpio_dm1[30] 3.5416 
21 *112:115 gpio_slow_sel[30] 11.8809 
*END

*D_NET *113 0.0123978
*CONN
*P gpio_slow_sel[31] O
*P gpio_dm1[31] O
*P gpio_analog_en[31] O
*P gpio_dm0[31] O
*P gpio_analog_pol[31] O
*P gpio_analog_sel[31] O
*P gpio_dm2[31] O
*P gpio_holdover[31] O
*P gpio_out[31] O
*P gpio_vtrip_sel[31] O
*P gpio_ib_mode_sel[31] O
*P gpio_loopback_zero[31] I
*CAP
1 gpio_slow_sel[31] 0.000555934
2 gpio_dm1[31] 6.61623e-05
3 gpio_analog_en[31] 6.28011e-05
4 gpio_dm0[31] 1.54496e-05
5 gpio_analog_pol[31] 2.50544e-05
6 gpio_analog_sel[31] 2.92343e-05
7 gpio_dm2[31] 1.54496e-05
8 gpio_holdover[31] 1.52483e-05
9 gpio_out[31] 3.39346e-05
10 gpio_vtrip_sel[31] 2.92343e-05
11 gpio_ib_mode_sel[31] 2.10361e-05
12 gpio_loopback_zero[31] 0.00143148
13 *113:111 0.000915943
14 *113:101 0.000602121
15 *113:89 0.0004235
16 *113:77 0.000885617
17 *113:67 0.000889797
18 *113:57 0.000340604
19 *113:47 0.0003148
20 *113:37 0.000593055
21 *113:27 0.000613958
22 *113:17 0.00161509
23 gpio_analog_pol[31] gpio_inp_dis[31] 2.14382e-05
24 gpio_ib_mode_sel[31] gpio_oeb[31] 1.31689e-05
25 *113:17 gpio_inp_dis[31] 0.00015786
26 *113:17 gpio_oeb[31] 1.40607e-05
27 *113:17 *252:9 0.00205592
28 *113:37 gpio_inp_dis[31] 0.000274226
29 *113:77 gpio_inp_dis[31] 0.000365645
30 *113:101 gpio_inp_dis[31] 0
*RES
1 gpio_loopback_zero[31] *113:17 17.6542 
2 *113:17 gpio_ib_mode_sel[31] 3.5416 
3 *113:17 *113:27 3 
4 *113:27 gpio_vtrip_sel[31] 3.5416 
5 *113:27 *113:37 8.33929 
6 *113:37 gpio_out[31] 3.5416 
7 *113:37 *113:47 2.58929 
8 *113:47 gpio_holdover[31] 3.5416 
9 *113:47 *113:57 3 
10 *113:57 gpio_dm2[31] 3.5416 
11 *113:57 *113:67 3 
12 *113:67 gpio_analog_sel[31] 3.5416 
13 *113:67 *113:77 13.6786 
14 *113:77 gpio_analog_pol[31] 3.5416 
15 *113:77 *113:89 6.41 
16 *113:89 gpio_dm0[31] 0.1316 
17 *113:89 *113:101 4.18863 
18 *113:101 gpio_analog_en[31] 3.72177 
19 *113:101 *113:111 0.983867 
20 *113:111 gpio_dm1[31] 3.72177 
21 *113:111 gpio_slow_sel[31] 5.2101 
*END

*D_NET *114 0.0133597
*CONN
*P gpio_holdover[32] O
*P gpio_slow_sel[32] O
*P gpio_dm1[32] O
*P gpio_analog_en[32] O
*P gpio_dm0[32] O
*P gpio_analog_pol[32] O
*P gpio_analog_sel[32] O
*P gpio_dm2[32] O
*P gpio_out[32] O
*P gpio_vtrip_sel[32] O
*P gpio_ib_mode_sel[32] O
*P gpio_loopback_zero[32] I
*CAP
1 gpio_holdover[32] 8.7221e-05
2 gpio_slow_sel[32] 0.000625683
3 gpio_dm1[32] 2.485e-05
4 gpio_analog_en[32] 2.25357e-05
5 gpio_dm0[32] 1.54496e-05
6 gpio_analog_pol[32] 3.33678e-05
7 gpio_analog_sel[32] 4.2403e-05
8 gpio_dm2[32] 2.38968e-05
9 gpio_out[32] 4.19776e-05
10 gpio_vtrip_sel[32] 7.77742e-05
11 gpio_ib_mode_sel[32] 3.96897e-05
12 gpio_loopback_zero[32] 0.00180543
13 *114:109 0.000926023
14 *114:97 0.000452462
15 *114:87 0.000332463
16 *114:77 0.00089393
17 *114:67 0.000902965
18 *114:57 0.000349051
19 *114:55 0.000394913
20 *114:45 0.00056974
21 *114:31 0.000662336
22 *114:17 0.00204703
23 gpio_analog_pol[32] gpio_inp_dis[32] 1.65147e-05
24 *114:17 gpio_inp_dis[32] 0.000206392
25 *114:17 gpio_oeb[32] 2.95395e-05
26 *114:17 *253:13 0.001777
27 *114:31 gpio_inp_dis[32] 0.000148221
28 *114:45 gpio_inp_dis[32] 0.000390585
29 *114:77 gpio_inp_dis[32] 0.000420283
*RES
1 gpio_loopback_zero[32] *114:17 15.2017 
2 *114:17 gpio_ib_mode_sel[32] 0.254583 
3 *114:17 *114:31 4.19255 
4 *114:31 gpio_vtrip_sel[32] 3.72177 
5 *114:31 *114:45 5.1255 
6 *114:45 gpio_out[32] 0.1316 
7 *114:45 *114:55 5.99929 
8 *114:55 *114:57 3 
9 *114:57 gpio_dm2[32] 3.5416 
10 *114:57 *114:67 3 
11 *114:67 gpio_analog_sel[32] 3.5416 
12 *114:67 *114:77 13.6786 
13 *114:77 gpio_analog_pol[32] 3.5416 
14 *114:77 *114:87 3 
15 *114:87 gpio_dm0[32] 3.5416 
16 *114:87 *114:97 3 
17 *114:97 gpio_analog_en[32] 3.5416 
18 *114:97 *114:109 8.87429 
19 *114:109 gpio_dm1[32] 0.1316 
20 *114:109 gpio_slow_sel[32] 19.9877 
21 *114:55 gpio_holdover[32] 4.14938 
*END

*D_NET *115 0.0116845
*CONN
*P gpio_slow_sel[33] O
*P gpio_dm1[33] O
*P gpio_analog_en[33] O
*P gpio_dm0[33] O
*P gpio_analog_pol[33] O
*P gpio_analog_sel[33] O
*P gpio_dm2[33] O
*P gpio_holdover[33] O
*P gpio_out[33] O
*P gpio_vtrip_sel[33] O
*P gpio_ib_mode_sel[33] O
*P gpio_loopback_zero[33] I
*CAP
1 gpio_slow_sel[33] 0.000470403
2 gpio_dm1[33] 3.08271e-05
3 gpio_analog_en[33] 2.25357e-05
4 gpio_dm0[33] 1.94805e-05
5 gpio_analog_pol[33] 1.92946e-05
6 gpio_analog_sel[33] 2.1312e-05
7 gpio_dm2[33] 1.54496e-05
8 gpio_holdover[33] 1.52483e-05
9 gpio_out[33] 3.39346e-05
10 gpio_vtrip_sel[33] 2.41285e-05
11 gpio_ib_mode_sel[33] 3.6958e-05
12 gpio_loopback_zero[33] 0.00200062
13 *115:123 0.000784861
14 *115:113 0.000468744
15 *115:103 0.000344635
16 *115:93 0.00086616
17 *115:71 0.000868178
18 *115:61 0.000332463
19 *115:51 0.000306659
20 *115:41 0.000593055
21 *115:31 0.000598555
22 *115:17 0.00218986
23 gpio_analog_pol[33] gpio_inp_dis[33] 2.46032e-05
24 gpio_ib_mode_sel[33] gpio_oeb[33] 4.5752e-05
25 *115:17 gpio_inp_dis[33] 1.19602e-05
26 *115:17 *254:13 0.000611472
27 *115:93 gpio_inp_dis[33] 0.000927401
*RES
1 gpio_loopback_zero[33] *115:17 14.9165 
2 *115:17 gpio_ib_mode_sel[33] 0.243617 
3 *115:17 *115:31 6.24482 
4 *115:31 gpio_vtrip_sel[33] 3.5416 
5 *115:31 *115:41 8.33929 
6 *115:41 gpio_out[33] 3.5416 
7 *115:41 *115:51 2.58929 
8 *115:51 gpio_holdover[33] 3.5416 
9 *115:51 *115:61 3 
10 *115:61 gpio_dm2[33] 3.5416 
11 *115:61 *115:71 3 
12 *115:71 gpio_analog_sel[33] 3.5416 
13 *115:71 *115:93 13.9744 
14 *115:93 gpio_analog_pol[33] 0.1316 
15 *115:93 *115:103 6.41 
16 *115:103 gpio_dm0[33] 3.5416 
17 *115:103 *115:113 3 
18 *115:113 gpio_analog_en[33] 3.5416 
19 *115:113 *115:123 5.46429 
20 *115:123 gpio_dm1[33] 3.5416 
21 *115:123 gpio_slow_sel[33] 11.8809 
*END

*D_NET *116 0.0124729
*CONN
*P gpio_analog_pol[34] O
*P gpio_analog_en[34] O
*P gpio_slow_sel[34] O
*P gpio_dm1[34] O
*P gpio_dm0[34] O
*P gpio_analog_sel[34] O
*P gpio_dm2[34] O
*P gpio_holdover[34] O
*P gpio_out[34] O
*P gpio_vtrip_sel[34] O
*P gpio_ib_mode_sel[34] O
*P gpio_loopback_zero[34] I
*CAP
1 gpio_analog_pol[34] 8.86295e-05
2 gpio_analog_en[34] 4.31355e-05
3 gpio_slow_sel[34] 0.000555934
4 gpio_dm1[34] 7.42535e-05
5 gpio_dm0[34] 1.54496e-05
6 gpio_analog_sel[34] 2.92343e-05
7 gpio_dm2[34] 1.54496e-05
8 gpio_holdover[34] 1.52483e-05
9 gpio_out[34] 3.39346e-05
10 gpio_vtrip_sel[34] 4.11091e-05
11 gpio_ib_mode_sel[34] 3.05243e-05
12 gpio_loopback_zero[34] 0.00174091
13 *116:101 0.000990815
14 *116:95 0.000578863
15 *116:83 0.000344986
16 *116:81 0.00093291
17 *116:71 0.000873515
18 *116:61 0.000332463
19 *116:51 0.000322941
20 *116:41 0.000601196
21 *116:31 0.000618354
22 *116:21 0.00192653
23 gpio_analog_pol[34] gpio_inp_dis[34] 3.42534e-05
24 gpio_ib_mode_sel[34] gpio_oeb[34] 1.70108e-05
25 *116:21 gpio_inp_dis[34] 0.000186724
26 *116:21 gpio_oeb[34] 5.96283e-06
27 *116:21 *255:9 0.00135984
28 *116:41 gpio_inp_dis[34] 0.000274226
29 *116:81 gpio_inp_dis[34] 0.0003885
*RES
1 gpio_loopback_zero[34] *116:21 14.7685 
2 *116:21 gpio_ib_mode_sel[34] 0.1316 
3 *116:21 *116:31 6.41 
4 *116:31 gpio_vtrip_sel[34] 3.5416 
5 *116:31 *116:41 8.33929 
6 *116:41 gpio_out[34] 3.5416 
7 *116:41 *116:51 2.58929 
8 *116:51 gpio_holdover[34] 3.5416 
9 *116:51 *116:61 3 
10 *116:61 gpio_dm2[34] 3.5416 
11 *116:61 *116:71 3 
12 *116:71 gpio_analog_sel[34] 3.5416 
13 *116:71 *116:81 13.6786 
14 *116:81 *116:83 3 
15 *116:83 gpio_dm0[34] 3.5416 
16 *116:83 *116:95 6.61089 
17 *116:95 *116:101 4.58578 
18 *116:101 gpio_dm1[34] 3.72177 
19 *116:101 gpio_slow_sel[34] 5.2101 
20 *116:95 gpio_analog_en[34] 0.249883 
21 *116:81 gpio_analog_pol[34] 4.14938 
*END

*D_NET *117 0.0139985
*CONN
*P gpio_slow_sel[35] O
*P gpio_dm1[35] O
*P gpio_analog_en[35] O
*P gpio_dm0[35] O
*P gpio_analog_pol[35] O
*P gpio_analog_sel[35] O
*P gpio_dm2[35] O
*P gpio_holdover[35] O
*P gpio_out[35] O
*P gpio_vtrip_sel[35] O
*P gpio_ib_mode_sel[35] O
*P gpio_loopback_zero[35] I
*CAP
1 gpio_slow_sel[35] 0.000530206
2 gpio_dm1[35] 6.45293e-05
3 gpio_analog_en[35] 8.1829e-05
4 gpio_dm0[35] 2.69953e-05
5 gpio_analog_pol[35] 1.98405e-05
6 gpio_analog_sel[35] 9.03204e-05
7 gpio_dm2[35] 5.08175e-05
8 gpio_holdover[35] 5.0035e-05
9 gpio_out[35] 9.44395e-05
10 gpio_vtrip_sel[35] 0.000113926
11 gpio_ib_mode_sel[35] 1.08596e-05
12 gpio_loopback_zero[35] 0.00173717
13 *117:131 0.000892488
14 *117:117 0.00071809
15 *117:103 0.000534198
16 *117:89 0.00077871
17 *117:75 0.000804989
18 *117:65 0.000299804
19 *117:55 0.000275779
20 *117:45 0.000482831
21 *117:31 0.000586958
22 *117:19 0.00193392
23 gpio_analog_pol[35] gpio_inp_dis[35] 2.05271e-05
24 *117:19 gpio_inp_dis[35] 0.000113793
25 *117:19 gpio_oeb[35] 1.9968e-05
26 *117:19 *256:13 0.00107744
27 *117:31 gpio_inp_dis[35] 0.000251706
28 *117:31 gpio_oeb[35] 3.88869e-06
29 *117:45 gpio_inp_dis[35] 0.000711471
30 *117:55 gpio_inp_dis[35] 0.000207458
31 *117:65 gpio_inp_dis[35] 0.000239015
32 *117:75 gpio_inp_dis[35] 0.000239015
33 *117:89 gpio_inp_dis[35] 0.000935449
*RES
1 gpio_loopback_zero[35] *117:19 14.6698 
2 *117:19 gpio_ib_mode_sel[35] 0.1316 
3 *117:19 *117:31 4.17062 
4 *117:31 gpio_vtrip_sel[35] 3.83378 
5 *117:31 *117:45 1.50635 
6 *117:45 gpio_out[35] 3.72177 
7 *117:45 *117:55 0.4794 
8 *117:55 gpio_holdover[35] 3.72177 
9 *117:55 *117:65 0.551467 
10 *117:65 gpio_dm2[35] 3.72177 
11 *117:65 *117:75 0.551467 
12 *117:75 gpio_analog_sel[35] 3.72177 
13 *117:75 *117:89 6.06237 
14 *117:89 gpio_analog_pol[35] 0.1316 
15 *117:89 *117:103 0.878117 
16 *117:103 gpio_dm0[35] 0.20915 
17 *117:103 *117:117 4.17923 
18 *117:117 gpio_analog_en[35] 3.77582 
19 *117:117 *117:131 0.899267 
20 *117:131 gpio_dm1[35] 3.69122 
21 *117:131 gpio_slow_sel[35] 5.14038 
*END

*D_NET *118 0.0129384
*CONN
*P gpio_slow_sel[36] O
*P gpio_dm1[36] O
*P gpio_analog_en[36] O
*P gpio_dm0[36] O
*P gpio_analog_pol[36] O
*P gpio_analog_sel[36] O
*P gpio_dm2[36] O
*P gpio_holdover[36] O
*P gpio_out[36] O
*P gpio_vtrip_sel[36] O
*P gpio_ib_mode_sel[36] O
*P gpio_loopback_zero[36] I
*CAP
1 gpio_slow_sel[36] 0.000470403
2 gpio_dm1[36] 2.41285e-05
3 gpio_analog_en[36] 1.95964e-05
4 gpio_dm0[36] 5.10579e-06
5 gpio_analog_pol[36] 2.50544e-05
6 gpio_analog_sel[36] 4.2403e-05
7 gpio_dm2[36] 2.38968e-05
8 gpio_holdover[36] 2.34608e-05
9 gpio_out[36] 4.19776e-05
10 gpio_vtrip_sel[36] 4.14696e-05
11 gpio_ib_mode_sel[36] 4.86051e-05
12 gpio_loopback_zero[36] 0.00222882
13 *118:129 0.000945907
14 *118:109 0.000661512
15 *118:93 0.000358224
16 *118:81 0.000885605
17 *118:71 0.000902953
18 *118:61 0.00034091
19 *118:51 0.000314872
20 *118:41 0.000601098
21 *118:31 0.000626264
22 *118:19 0.00244008
23 gpio_analog_pol[36] gpio_inp_dis[36] 2.14382e-05
24 gpio_ib_mode_sel[36] gpio_oeb[36] 1.58549e-05
25 *118:19 gpio_inp_dis[36] 0.000295258
26 *118:19 *257:9 0.000865964
27 *118:41 gpio_inp_dis[36] 0.00029666
28 *118:81 gpio_inp_dis[36] 0.000370834
*RES
1 gpio_loopback_zero[36] *118:19 14.9244 
2 *118:19 gpio_ib_mode_sel[36] 0.201317 
3 *118:19 *118:31 6.28054 
4 *118:31 gpio_vtrip_sel[36] 3.5416 
5 *118:31 *118:41 8.33929 
6 *118:41 gpio_out[36] 3.5416 
7 *118:41 *118:51 2.58929 
8 *118:51 gpio_holdover[36] 3.5416 
9 *118:51 *118:61 3 
10 *118:61 gpio_dm2[36] 3.5416 
11 *118:61 *118:71 3 
12 *118:71 gpio_analog_sel[36] 3.5416 
13 *118:71 *118:81 13.6786 
14 *118:81 gpio_analog_pol[36] 3.5416 
15 *118:81 *118:93 6.41 
16 *118:93 gpio_dm0[36] 0.1316 
17 *118:93 *118:109 0.955667 
18 *118:109 gpio_analog_en[36] 0.1316 
19 *118:109 *118:129 12.3785 
20 *118:129 gpio_dm1[36] 3.5416 
21 *118:129 gpio_slow_sel[36] 11.8809 
*END

*D_NET *119 0.0133267
*CONN
*P gpio_ib_mode_sel[37] O
*P gpio_dm2[37] O
*P gpio_slow_sel[37] O
*P gpio_dm1[37] O
*P gpio_analog_en[37] O
*P gpio_dm0[37] O
*P gpio_analog_pol[37] O
*P gpio_analog_sel[37] O
*P gpio_holdover[37] O
*P gpio_out[37] O
*P gpio_vtrip_sel[37] O
*P gpio_loopback_zero[37] I
*CAP
1 gpio_ib_mode_sel[37] 0.00010975
2 gpio_dm2[37] 5.2582e-05
3 gpio_slow_sel[37] 0.000507448
4 gpio_dm1[37] 4.34086e-05
5 gpio_analog_en[37] 3.49618e-05
6 gpio_dm0[37] 3.28557e-05
7 gpio_analog_pol[37] 6.63454e-05
8 gpio_analog_sel[37] 6.92287e-05
9 gpio_holdover[37] 2.34138e-05
10 gpio_out[37] 4.19776e-05
11 gpio_vtrip_sel[37] 4.2403e-05
12 gpio_loopback_zero[37] 0.00148311
13 *119:105 0.000861662
14 *119:93 0.000518669
15 *119:81 0.000400463
16 *119:67 0.000823672
17 *119:55 0.000764139
18 *119:51 0.000353281
19 *119:37 0.000336939
20 *119:27 0.000609239
21 *119:17 0.000707147
22 *119:11 0.00183546
23 gpio_analog_pol[37] gpio_inp_dis[37] 4.65732e-05
24 gpio_ib_mode_sel[37] gpio_oeb[37] 9.23318e-06
25 *119:11 gpio_inp_dis[37] 0.000120587
26 *119:11 *258:13 0.00179807
27 *119:17 gpio_oeb[37] 1.77414e-05
28 *119:27 gpio_inp_dis[37] 0.00029666
29 *119:55 gpio_inp_dis[37] 0.000274893
30 *119:67 gpio_inp_dis[37] 0.00104474
*RES
1 gpio_loopback_zero[37] *119:11 13.5661 
2 *119:11 *119:17 7.32913 
3 *119:17 gpio_vtrip_sel[37] 3.5416 
4 *119:17 *119:27 8.33929 
5 *119:27 gpio_out[37] 3.5416 
6 *119:27 *119:37 2.58929 
7 *119:37 gpio_holdover[37] 3.5416 
8 *119:37 *119:51 6.3725 
9 *119:51 *119:55 3.98262 
10 *119:55 gpio_analog_sel[37] 3.62463 
11 *119:55 *119:67 2.39778 
12 *119:67 gpio_analog_pol[37] 3.69905 
13 *119:67 *119:81 0.578883 
14 *119:81 gpio_dm0[37] 3.62463 
15 *119:81 *119:93 0.551467 
16 *119:93 gpio_analog_en[37] 3.62463 
17 *119:93 *119:105 0.983867 
18 *119:105 gpio_dm1[37] 3.62463 
19 *119:105 gpio_slow_sel[37] 5.11297 
20 *119:51 gpio_dm2[37] 0.235783 
21 *119:11 gpio_ib_mode_sel[37] 0.480183 
*END

*D_NET *120 0.0118154
*CONN
*P gpio_ib_mode_sel[38] O
*P gpio_vtrip_sel[38] O
*P gpio_out[38] O
*P gpio_holdover[38] O
*P gpio_dm2[38] O
*P gpio_analog_sel[38] O
*P gpio_analog_pol[38] O
*P gpio_dm0[38] O
*P gpio_analog_en[38] O
*P gpio_dm1[38] O
*P gpio_slow_sel[38] O
*P gpio_loopback_zero[38] I
*CAP
1 gpio_ib_mode_sel[38] 5.29272e-05
2 gpio_vtrip_sel[38] 6.03539e-05
3 gpio_out[38] 2.11399e-05
4 gpio_holdover[38] 6.43017e-06
5 gpio_dm2[38] 6.43017e-06
6 gpio_analog_sel[38] 6.58104e-05
7 gpio_analog_pol[38] 2.45416e-05
8 gpio_dm0[38] 1.88366e-05
9 gpio_analog_en[38] 3.19683e-05
10 gpio_dm1[38] 3.76732e-05
11 gpio_slow_sel[38] 0.00049903
12 gpio_loopback_zero[38] 0.001117
13 *120:57 0.00084782
14 *120:55 0.000525427
15 *120:53 0.000383519
16 *120:51 0.000783291
17 *120:43 0.000783703
18 *120:37 0.000323812
19 *120:27 0.000339143
20 *120:17 0.00050621
21 *120:11 0.000500702
22 *120:9 0.00128202
23 gpio_analog_pol[38] gpio_inp_dis[38] 0
24 gpio_ib_mode_sel[38] gpio_oeb[38] 0
25 *120:9 gpio_inp_dis[38] 0.000324825
26 *120:9 *259:9 0.000644138
27 *120:11 gpio_inp_dis[38] 0.000324825
28 *120:17 gpio_inp_dis[38] 0.000962846
29 *120:51 gpio_inp_dis[38] 0.00134092
*RES
1 gpio_loopback_zero[38] *120:9 8.70607 
2 *120:9 *120:11 0.551467 
3 *120:11 *120:17 5.63048 
4 *120:17 *120:27 4.30357 
5 *120:27 *120:37 4.71429 
6 *120:37 *120:43 3.44643 
7 *120:43 *120:51 6.1078 
8 *120:51 *120:53 0.551467 
9 *120:53 *120:55 0.551467 
10 *120:55 *120:57 0.983867 
11 *120:57 gpio_slow_sel[38] 5.56798 
12 *120:57 gpio_dm1[38] 4.07964 
13 *120:55 gpio_analog_en[38] 4.07964 
14 *120:53 gpio_dm0[38] 4.07964 
15 *120:51 gpio_analog_pol[38] 4.07964 
16 *120:43 gpio_analog_sel[38] 1.9375 
17 *120:37 gpio_dm2[38] 0.669643 
18 *120:27 gpio_holdover[38] 0.669643 
19 *120:17 gpio_out[38] 0.669643 
20 *120:11 gpio_vtrip_sel[38] 4.68679 
21 *120:9 gpio_ib_mode_sel[38] 4.68679 
*END

*D_NET *121 0.013082
*CONN
*P gpio_ib_mode_sel[39] O
*P gpio_vtrip_sel[39] O
*P gpio_out[39] O
*P gpio_holdover[39] O
*P gpio_dm2[39] O
*P gpio_analog_sel[39] O
*P gpio_analog_pol[39] O
*P gpio_dm0[39] O
*P gpio_analog_en[39] O
*P gpio_dm1[39] O
*P gpio_slow_sel[39] O
*P gpio_loopback_zero[39] I
*CAP
1 gpio_ib_mode_sel[39] 5.29272e-05
2 gpio_vtrip_sel[39] 6.03539e-05
3 gpio_out[39] 5.29272e-05
4 gpio_holdover[39] 3.77604e-05
5 gpio_dm2[39] 3.77604e-05
6 gpio_analog_sel[39] 6.03539e-05
7 gpio_analog_pol[39] 3.9395e-05
8 gpio_dm0[39] 3.369e-05
9 gpio_analog_en[39] 6.16751e-05
10 gpio_dm1[39] 3.76732e-05
11 gpio_slow_sel[39] 0.000510002
12 gpio_loopback_zero[39] 0.00134584
13 *121:31 0.000917016
14 *121:25 0.000624329
15 *121:23 0.000420317
16 *121:21 0.000756798
17 *121:19 0.00070658
18 *121:17 0.000282034
19 *121:15 0.000268963
20 *121:13 0.00045405
21 *121:11 0.000474547
22 *121:9 0.00152091
23 gpio_analog_pol[39] gpio_inp_dis[39] 0
24 gpio_ib_mode_sel[39] gpio_oeb[39] 0
25 *121:9 gpio_inp_dis[39] 0.000227791
26 *121:9 *260:9 0.000641148
27 *121:11 gpio_inp_dis[39] 0.000321337
28 *121:13 gpio_inp_dis[39] 0.000931045
29 *121:15 gpio_inp_dis[39] 0.000274436
30 *121:17 gpio_inp_dis[39] 0.000321337
31 *121:19 gpio_inp_dis[39] 0.000321337
32 *121:21 gpio_inp_dis[39] 0.00128766
*RES
1 gpio_loopback_zero[39] *121:9 9.46042 
2 *121:9 *121:11 0.551467 
3 *121:11 *121:13 1.48833 
4 *121:13 *121:15 0.4794 
5 *121:15 *121:17 0.551467 
6 *121:17 *121:19 0.551467 
7 *121:19 *121:21 2.4252 
8 *121:21 *121:23 0.551467 
9 *121:23 *121:25 0.551467 
10 *121:25 *121:31 1.1844 
11 *121:31 gpio_slow_sel[39] 5.56798 
12 *121:31 gpio_dm1[39] 4.07964 
13 *121:25 gpio_analog_en[39] 4.68679 
14 *121:23 gpio_dm0[39] 4.68679 
15 *121:21 gpio_analog_pol[39] 4.68679 
16 *121:19 gpio_analog_sel[39] 4.68679 
17 *121:17 gpio_dm2[39] 4.68679 
18 *121:15 gpio_holdover[39] 4.68679 
19 *121:13 gpio_out[39] 4.68679 
20 *121:11 gpio_vtrip_sel[39] 4.68679 
21 *121:9 gpio_ib_mode_sel[39] 4.68679 
*END

*D_NET *122 0.0128204
*CONN
*P gpio_oeb[3] O
*P gpio_ib_mode_sel[3] O
*P gpio_vtrip_sel[3] O
*P gpio_holdover[3] O
*P gpio_analog_sel[3] O
*P gpio_analog_pol[3] O
*P gpio_dm0[3] O
*P gpio_analog_en[3] O
*P gpio_slow_sel[3] O
*P gpio_loopback_zero[3] I
*CAP
1 gpio_oeb[3] 5.7889e-05
2 gpio_ib_mode_sel[3] 3.32606e-05
3 gpio_vtrip_sel[3] 7.01123e-05
4 gpio_holdover[3] 6.6614e-05
5 gpio_analog_sel[3] 3.02275e-05
6 gpio_analog_pol[3] 8.91635e-05
7 gpio_dm0[3] 6.12752e-05
8 gpio_analog_en[3] 0.00012748
9 gpio_slow_sel[3] 0.00074956
10 gpio_loopback_zero[3] 0.000901861
11 *122:43 0.00100643
12 *122:41 0.000303913
13 *122:39 0.000834894
14 *122:31 0.000916697
15 *122:23 0.00063981
16 *122:21 0.000469629
17 *122:19 0.000194197
18 *122:17 0.00104038
19 gpio_analog_en[3] gpio_dm1[3] 0
20 gpio_analog_pol[3] gpio_inp_dis[3] 5.17537e-05
21 gpio_analog_sel[3] gpio_dm2[3] 1.78416e-05
22 gpio_holdover[3] gpio_dm2[3] 1.78416e-05
23 gpio_holdover[3] gpio_out[3] 2.05378e-05
24 gpio_slow_sel[3] gpio_dm1[3] 0.000479598
25 *122:17 *139:9 0.00100765
26 *122:19 *139:9 0.000263428
27 *122:21 *139:9 0.000263428
28 *122:23 *139:9 0.000889628
29 *122:31 *139:9 0.000284046
30 *122:31 *139:11 0.000280607
31 *122:39 gpio_dm1[3] 0.000232167
32 *122:39 gpio_dm2[3] 0
33 *122:39 *139:11 0.000893243
34 *122:41 gpio_dm1[3] 0.000265632
35 *122:43 gpio_dm1[3] 0.000259595
*RES
1 gpio_loopback_zero[3] *122:17 15.2087 
2 *122:17 *122:19 0.579667 
3 *122:19 *122:21 0.579667 
4 *122:21 *122:23 1.85807 
5 *122:23 *122:31 4.67665 
6 *122:31 *122:39 6.2535 
7 *122:39 *122:41 0.551467 
8 *122:41 *122:43 0.551467 
9 *122:43 gpio_slow_sel[3] 6.2911 
10 *122:43 gpio_analog_en[3] 3.8659 
11 *122:41 gpio_dm0[3] 3.8659 
12 *122:39 gpio_analog_pol[3] 3.8659 
13 *122:31 gpio_analog_sel[3] 0.1316 
14 *122:23 gpio_holdover[3] 3.70375 
15 *122:21 gpio_vtrip_sel[3] 3.70218 
16 *122:19 gpio_ib_mode_sel[3] 3.67398 
17 *122:17 gpio_oeb[3] 3.69748 
*END

*D_NET *123 0.0108538
*CONN
*P gpio_ib_mode_sel[40] O
*P gpio_vtrip_sel[40] O
*P gpio_out[40] O
*P gpio_holdover[40] O
*P gpio_dm2[40] O
*P gpio_analog_sel[40] O
*P gpio_analog_pol[40] O
*P gpio_dm0[40] O
*P gpio_analog_en[40] O
*P gpio_dm1[40] O
*P gpio_slow_sel[40] O
*P gpio_loopback_zero[40] I
*CAP
1 gpio_ib_mode_sel[40] 2.45416e-05
2 gpio_vtrip_sel[40] 3.19683e-05
3 gpio_out[40] 2.45416e-05
4 gpio_holdover[40] 1.88366e-05
5 gpio_dm2[40] 1.88366e-05
6 gpio_analog_sel[40] 3.19683e-05
7 gpio_analog_pol[40] 2.45416e-05
8 gpio_dm0[40] 1.88366e-05
9 gpio_analog_en[40] 3.19683e-05
10 gpio_dm1[40] 3.76732e-05
11 gpio_slow_sel[40] 0.00049903
12 gpio_loopback_zero[40] 0.00138593
13 *123:27 0.00084782
14 *123:25 0.000525427
15 *123:23 0.000383519
16 *123:21 0.000790011
17 *123:19 0.000729929
18 *123:17 0.000248503
19 *123:15 0.000234391
20 *123:13 0.000423549
21 *123:11 0.000445088
22 *123:9 0.00152531
23 gpio_analog_pol[40] gpio_inp_dis[40] 0
24 gpio_ib_mode_sel[40] gpio_oeb[40] 0
25 *123:9 gpio_inp_dis[40] 0.00015942
26 *123:9 *261:13 0.00039105
27 *123:11 gpio_inp_dis[40] 0.00019056
28 *123:13 gpio_inp_dis[40] 0.000544456
29 *123:15 gpio_inp_dis[40] 0.000163337
30 *123:17 gpio_inp_dis[40] 0.00019056
31 *123:19 gpio_inp_dis[40] 0.00019056
32 *123:21 gpio_inp_dis[40] 0.00072164
*RES
1 gpio_loopback_zero[40] *123:9 8.86816 
2 *123:9 *123:11 0.551467 
3 *123:11 *123:13 1.48833 
4 *123:13 *123:15 0.4794 
5 *123:15 *123:17 0.551467 
6 *123:17 *123:19 0.551467 
7 *123:19 *123:21 2.4252 
8 *123:21 *123:23 0.551467 
9 *123:23 *123:25 0.551467 
10 *123:25 *123:27 0.983867 
11 *123:27 gpio_slow_sel[40] 5.56798 
12 *123:27 gpio_dm1[40] 4.07964 
13 *123:25 gpio_analog_en[40] 4.07964 
14 *123:23 gpio_dm0[40] 4.07964 
15 *123:21 gpio_analog_pol[40] 4.07964 
16 *123:19 gpio_analog_sel[40] 4.07964 
17 *123:17 gpio_dm2[40] 4.07964 
18 *123:15 gpio_holdover[40] 4.07964 
19 *123:13 gpio_out[40] 4.07964 
20 *123:11 gpio_vtrip_sel[40] 4.07964 
21 *123:9 gpio_ib_mode_sel[40] 4.07964 
*END

*D_NET *124 0.0109321
*CONN
*P gpio_ib_mode_sel[41] O
*P gpio_vtrip_sel[41] O
*P gpio_out[41] O
*P gpio_holdover[41] O
*P gpio_dm2[41] O
*P gpio_analog_sel[41] O
*P gpio_analog_pol[41] O
*P gpio_dm0[41] O
*P gpio_analog_en[41] O
*P gpio_dm1[41] O
*P gpio_slow_sel[41] O
*P gpio_loopback_zero[41] I
*CAP
1 gpio_ib_mode_sel[41] 2.45416e-05
2 gpio_vtrip_sel[41] 3.19683e-05
3 gpio_out[41] 2.45416e-05
4 gpio_holdover[41] 1.88366e-05
5 gpio_dm2[41] 1.88366e-05
6 gpio_analog_sel[41] 3.19683e-05
7 gpio_analog_pol[41] 2.45416e-05
8 gpio_dm0[41] 1.88366e-05
9 gpio_analog_en[41] 3.19683e-05
10 gpio_dm1[41] 3.76732e-05
11 gpio_slow_sel[41] 0.00049903
12 gpio_loopback_zero[41] 0.00146592
13 *124:27 0.00084782
14 *124:25 0.000525427
15 *124:23 0.000383519
16 *124:21 0.000790011
17 *124:19 0.000729929
18 *124:17 0.000248503
19 *124:15 0.000234391
20 *124:13 0.000423549
21 *124:11 0.000445088
22 *124:9 0.0016053
23 gpio_analog_pol[41] gpio_inp_dis[41] 0
24 gpio_ib_mode_sel[41] gpio_oeb[41] 0
25 *124:9 gpio_inp_dis[41] 0.000213865
26 *124:9 *262:17 0.000254936
27 *124:11 gpio_inp_dis[41] 0.00019056
28 *124:13 gpio_inp_dis[41] 0.000544456
29 *124:15 gpio_inp_dis[41] 0.000163337
30 *124:17 gpio_inp_dis[41] 0.00019056
31 *124:19 gpio_inp_dis[41] 0.00019056
32 *124:21 gpio_inp_dis[41] 0.00072164
*RES
1 gpio_loopback_zero[41] *124:9 8.85328 
2 *124:9 *124:11 0.551467 
3 *124:11 *124:13 1.48833 
4 *124:13 *124:15 0.4794 
5 *124:15 *124:17 0.551467 
6 *124:17 *124:19 0.551467 
7 *124:19 *124:21 2.4252 
8 *124:21 *124:23 0.551467 
9 *124:23 *124:25 0.551467 
10 *124:25 *124:27 0.983867 
11 *124:27 gpio_slow_sel[41] 5.56798 
12 *124:27 gpio_dm1[41] 4.07964 
13 *124:25 gpio_analog_en[41] 4.07964 
14 *124:23 gpio_dm0[41] 4.07964 
15 *124:21 gpio_analog_pol[41] 4.07964 
16 *124:19 gpio_analog_sel[41] 4.07964 
17 *124:17 gpio_dm2[41] 4.07964 
18 *124:15 gpio_holdover[41] 4.07964 
19 *124:13 gpio_out[41] 4.07964 
20 *124:11 gpio_vtrip_sel[41] 4.07964 
21 *124:9 gpio_ib_mode_sel[41] 4.07964 
*END

*D_NET *125 0.012444
*CONN
*P gpio_ib_mode_sel[42] O
*P gpio_vtrip_sel[42] O
*P gpio_out[42] O
*P gpio_holdover[42] O
*P gpio_dm2[42] O
*P gpio_analog_sel[42] O
*P gpio_analog_pol[42] O
*P gpio_dm0[42] O
*P gpio_analog_en[42] O
*P gpio_dm1[42] O
*P gpio_slow_sel[42] O
*P gpio_loopback_zero[42] I
*CAP
1 gpio_ib_mode_sel[42] 5.29272e-05
2 gpio_vtrip_sel[42] 6.03539e-05
3 gpio_out[42] 5.29272e-05
4 gpio_holdover[42] 3.77604e-05
5 gpio_dm2[42] 2.82985e-05
6 gpio_analog_sel[42] 6.16751e-05
7 gpio_analog_pol[42] 6.23891e-05
8 gpio_dm0[42] 1.88366e-05
9 gpio_analog_en[42] 0.000124959
10 gpio_dm1[42] 3.76732e-05
11 gpio_slow_sel[42] 0.000510002
12 gpio_loopback_zero[42] 0.00135798
13 *125:29 0.000869765
14 *125:27 0.000640362
15 *125:25 0.000416196
16 *125:21 0.000821371
17 *125:19 0.000741892
18 *125:17 0.000275716
19 *125:15 0.000268963
20 *125:13 0.00045405
21 *125:11 0.000474547
22 *125:9 0.00153305
23 gpio_analog_pol[42] gpio_inp_dis[42] 0
24 gpio_ib_mode_sel[42] gpio_oeb[42] 0
25 *125:9 gpio_inp_dis[42] 0.000321337
26 *125:9 *263:9 0.000635772
27 *125:11 gpio_inp_dis[42] 0.000321337
28 *125:13 gpio_inp_dis[42] 0.000931045
29 *125:15 gpio_inp_dis[42] 0.000274436
30 *125:17 gpio_inp_dis[42] 0.000321337
31 *125:19 gpio_inp_dis[42] 0.00022731
32 *125:21 gpio_inp_dis[42] 0.000500919
33 *125:25 gpio_inp_dis[42] 8.78685e-06
*RES
1 gpio_loopback_zero[42] *125:9 9.47139 
2 *125:9 *125:11 0.551467 
3 *125:11 *125:13 1.48833 
4 *125:13 *125:15 0.4794 
5 *125:15 *125:17 0.551467 
6 *125:17 *125:19 0.551467 
7 *125:19 *125:21 2.4252 
8 *125:21 *125:25 0.705 
9 *125:25 *125:27 0.551467 
10 *125:27 *125:29 0.983867 
11 *125:29 gpio_slow_sel[42] 5.56798 
12 *125:29 gpio_dm1[42] 4.07964 
13 *125:27 gpio_analog_en[42] 4.84032 
14 *125:25 gpio_dm0[42] 4.07964 
15 *125:21 gpio_analog_pol[42] 4.68679 
16 *125:19 gpio_analog_sel[42] 4.68679 
17 *125:17 gpio_dm2[42] 4.68679 
18 *125:15 gpio_holdover[42] 4.68679 
19 *125:13 gpio_out[42] 4.68679 
20 *125:11 gpio_vtrip_sel[42] 4.68679 
21 *125:9 gpio_ib_mode_sel[42] 4.68679 
*END

*D_NET *126 0.0114077
*CONN
*P gpio_ib_mode_sel[43] O
*P gpio_out[43] O
*P gpio_holdover[43] O
*P gpio_dm2[43] O
*P gpio_analog_sel[43] O
*P gpio_analog_pol[43] O
*P gpio_dm0[43] O
*P gpio_analog_en[43] O
*P gpio_dm1[43] O
*P gpio_slow_sel[43] O
*P gpio_vtrip_sel[43] O
*P gpio_loopback_zero[43] I
*CAP
1 gpio_ib_mode_sel[43] 4.0225e-06
2 gpio_out[43] 2.45416e-05
3 gpio_holdover[43] 1.88366e-05
4 gpio_dm2[43] 1.88366e-05
5 gpio_analog_sel[43] 3.19683e-05
6 gpio_analog_pol[43] 2.45416e-05
7 gpio_dm0[43] 1.88366e-05
8 gpio_analog_en[43] 3.19683e-05
9 gpio_dm1[43] 3.76732e-05
10 gpio_slow_sel[43] 0.00049903
11 gpio_vtrip_sel[43] 2.29635e-05
12 gpio_loopback_zero[43] 0.00155923
13 *126:53 0.00084782
14 *126:51 0.000525427
15 *126:49 0.000383519
16 *126:47 0.000790011
17 *126:45 0.000729929
18 *126:43 0.000248503
19 *126:41 0.000234391
20 *126:39 0.000431243
21 *126:29 0.000503811
22 *126:19 0.00173813
23 gpio_analog_pol[43] gpio_inp_dis[43] 0
24 *126:19 gpio_inp_dis[43] 0.000356018
25 *126:19 gpio_oeb[43] 0
26 *126:19 *264:13 0.000515907
27 *126:39 gpio_inp_dis[43] 0.000544456
28 *126:41 gpio_inp_dis[43] 0.000163337
29 *126:43 gpio_inp_dis[43] 0.00019056
30 *126:45 gpio_inp_dis[43] 0.00019056
31 *126:47 gpio_inp_dis[43] 0.00072164
*RES
1 gpio_loopback_zero[43] *126:19 15.1535 
2 *126:19 *126:29 4.71429 
3 *126:29 gpio_vtrip_sel[43] 0.669643 
4 *126:29 *126:39 4.89833 
5 *126:39 *126:41 0.4794 
6 *126:41 *126:43 0.551467 
7 *126:43 *126:45 0.551467 
8 *126:45 *126:47 2.4252 
9 *126:47 *126:49 0.551467 
10 *126:49 *126:51 0.551467 
11 *126:51 *126:53 0.983867 
12 *126:53 gpio_slow_sel[43] 5.56798 
13 *126:53 gpio_dm1[43] 4.07964 
14 *126:51 gpio_analog_en[43] 4.07964 
15 *126:49 gpio_dm0[43] 4.07964 
16 *126:47 gpio_analog_pol[43] 4.07964 
17 *126:45 gpio_analog_sel[43] 4.07964 
18 *126:43 gpio_dm2[43] 4.07964 
19 *126:41 gpio_holdover[43] 4.07964 
20 *126:39 gpio_out[43] 4.07964 
21 *126:19 gpio_ib_mode_sel[43] 0.669643 
*END

*D_NET *127 0.0118762
*CONN
*P gpio_oeb[4] O
*P gpio_ib_mode_sel[4] O
*P gpio_vtrip_sel[4] O
*P gpio_holdover[4] O
*P gpio_analog_sel[4] O
*P gpio_analog_pol[4] O
*P gpio_dm0[4] O
*P gpio_analog_en[4] O
*P gpio_slow_sel[4] O
*P gpio_loopback_zero[4] I
*CAP
1 gpio_oeb[4] 2.92089e-05
2 gpio_ib_mode_sel[4] 2.04557e-05
3 gpio_vtrip_sel[4] 3.57193e-05
4 gpio_holdover[4] 7.32314e-05
5 gpio_analog_sel[4] 7.42885e-05
6 gpio_analog_pol[4] 5.21917e-05
7 gpio_dm0[4] 3.93255e-05
8 gpio_analog_en[4] 7.18582e-05
9 gpio_slow_sel[4] 0.000694696
10 gpio_loopback_zero[4] 0.00108955
11 *127:29 0.000905282
12 *127:27 0.000314814
13 *127:25 0.000646227
14 *127:23 0.00079052
15 *127:21 0.000729987
16 *127:15 0.000587954
17 *127:11 0.000337469
18 *127:9 0.00128134
19 gpio_analog_en[4] gpio_dm1[4] 0
20 gpio_analog_pol[4] gpio_inp_dis[4] 2.56294e-05
21 gpio_analog_sel[4] gpio_dm2[4] 2.13071e-05
22 gpio_holdover[4] gpio_dm2[4] 2.01209e-05
23 gpio_holdover[4] gpio_out[4] 2.66049e-05
24 gpio_slow_sel[4] gpio_dm1[4] 0.000462683
25 *127:9 *140:9 0.000411355
26 *127:21 *140:9 0.000892501
27 *127:23 *140:9 0.000289534
28 *127:23 *140:11 0.000251875
29 *127:25 gpio_dm1[4] 0.000199189
30 *127:25 *140:11 0.000974447
31 *127:27 gpio_dm1[4] 0.000263428
32 *127:29 gpio_dm1[4] 0.000263428
*RES
1 gpio_loopback_zero[4] *127:9 24.4255 
2 *127:9 *127:11 3 
3 *127:11 *127:15 6.41 
4 *127:15 *127:21 5.36912 
5 *127:21 *127:23 1.11233 
6 *127:23 *127:25 2.39073 
7 *127:25 *127:27 0.579667 
8 *127:27 *127:29 0.579667 
9 *127:29 gpio_slow_sel[4] 6.06315 
10 *127:29 gpio_analog_en[4] 3.70532 
11 *127:27 gpio_dm0[4] 3.67712 
12 *127:25 gpio_analog_pol[4] 3.69435 
13 *127:23 gpio_analog_sel[4] 3.68338 
14 *127:21 gpio_holdover[4] 3.71628 
15 *127:15 gpio_vtrip_sel[4] 0.1316 
16 *127:11 gpio_ib_mode_sel[4] 3.5416 
17 *127:9 gpio_oeb[4] 3.5416 
*END

*D_NET *128 0.0110636
*CONN
*P gpio_oeb[5] O
*P gpio_ib_mode_sel[5] O
*P gpio_vtrip_sel[5] O
*P gpio_holdover[5] O
*P gpio_analog_sel[5] O
*P gpio_dm0[5] O
*P gpio_slow_sel[5] O
*P gpio_analog_en[5] O
*P gpio_analog_pol[5] O
*P gpio_loopback_zero[5] I
*CAP
1 gpio_oeb[5] 2.12866e-05
2 gpio_ib_mode_sel[5] 1.54342e-05
3 gpio_vtrip_sel[5] 3.44584e-05
4 gpio_holdover[5] 4.00892e-05
5 gpio_analog_sel[5] 4.77239e-05
6 gpio_dm0[5] 0.000102868
7 gpio_slow_sel[5] 0.000750526
8 gpio_analog_en[5] 5.88581e-05
9 gpio_analog_pol[5] 0.000189194
10 gpio_loopback_zero[5] 0.00103423
11 *128:63 0.000903802
12 *128:61 0.000391084
13 *128:43 0.000951964
14 *128:33 0.000925918
15 *128:31 0.00090878
16 *128:29 0.000748364
17 *128:27 0.000332448
18 *128:25 0.00121809
19 gpio_analog_en[5] gpio_dm1[5] 3.18569e-05
20 gpio_analog_pol[5] gpio_inp_dis[5] 1.98624e-05
21 gpio_analog_sel[5] gpio_dm2[5] 1.39027e-05
22 gpio_holdover[5] gpio_out[5] 2.14465e-05
23 gpio_holdover[5] *141:13 1.33443e-06
24 gpio_holdover[5] *141:27 1.49692e-05
25 gpio_slow_sel[5] gpio_dm1[5] 0.000332488
26 *128:25 *141:13 0.000565803
27 *128:43 gpio_dm1[5] 0.00024073
28 *128:43 *141:27 0.000784257
29 *128:61 gpio_dm1[5] 0.000361879
*RES
1 gpio_loopback_zero[5] *128:25 28.3914 
2 *128:25 *128:27 3 
3 *128:27 *128:29 3 
4 *128:29 *128:31 10.8036 
5 *128:31 *128:33 5.875 
6 *128:33 *128:43 10.9514 
7 *128:43 gpio_analog_pol[5] 3.9129 
8 *128:43 *128:61 7.66052 
9 *128:61 *128:63 1.82589 
10 *128:63 gpio_analog_en[5] 3.5416 
11 *128:63 gpio_slow_sel[5] 18.2916 
12 *128:61 gpio_dm0[5] 4.84071 
13 *128:33 gpio_analog_sel[5] 3.5416 
14 *128:31 gpio_holdover[5] 3.5416 
15 *128:29 gpio_vtrip_sel[5] 3.5416 
16 *128:27 gpio_ib_mode_sel[5] 3.5416 
17 *128:25 gpio_oeb[5] 3.5416 
*END

*D_NET *129 0.0108074
*CONN
*P gpio_ib_mode_sel[6] O
*P gpio_vtrip_sel[6] O
*P gpio_holdover[6] O
*P gpio_analog_sel[6] O
*P gpio_analog_pol[6] O
*P gpio_dm0[6] O
*P gpio_analog_en[6] O
*P gpio_slow_sel[6] O
*P gpio_oeb[6] O
*P gpio_loopback_zero[6] I
*CAP
1 gpio_ib_mode_sel[6] 1.54342e-05
2 gpio_vtrip_sel[6] 7.25162e-05
3 gpio_holdover[6] 3.01296e-05
4 gpio_analog_sel[6] 3.17999e-05
5 gpio_analog_pol[6] 1.42716e-05
6 gpio_dm0[6] 1.54342e-05
7 gpio_analog_en[6] 3.44584e-05
8 gpio_slow_sel[6] 0.000729037
9 gpio_oeb[6] 7.76504e-05
10 gpio_loopback_zero[6] 0.00112974
11 *129:57 0.000926073
12 *129:55 0.000340589
13 *129:53 0.000747555
14 *129:35 0.000911728
15 *129:33 0.000875374
16 *129:31 0.000786422
17 *129:29 0.000347754
18 *129:17 0.00136183
19 gpio_analog_en[6] gpio_dm1[6] 0
20 gpio_analog_pol[6] gpio_inp_dis[6] 1.51583e-05
21 gpio_analog_sel[6] gpio_dm2[6] 1.86796e-05
22 gpio_holdover[6] gpio_dm2[6] 1.86796e-05
23 gpio_holdover[6] gpio_out[6] 2.14465e-05
24 *129:17 *142:9 0.00090836
25 *129:33 *142:9 0.000274226
26 *129:53 gpio_dm1[6] 0.000180723
27 *129:53 gpio_inp_dis[6] 1.15546e-05
28 *129:53 *142:11 0.000910786
*RES
1 gpio_loopback_zero[6] *129:17 15.2782 
2 *129:17 gpio_oeb[6] 4.14938 
3 *129:17 *129:29 3 
4 *129:29 *129:31 3.24554 
5 *129:31 *129:33 10.558 
6 *129:33 *129:35 5.875 
7 *129:35 *129:53 17.6444 
8 *129:53 *129:55 3 
9 *129:55 *129:57 3 
10 *129:57 gpio_slow_sel[6] 17.2202 
11 *129:57 gpio_analog_en[6] 3.5416 
12 *129:55 gpio_dm0[6] 3.5416 
13 *129:53 gpio_analog_pol[6] 3.5416 
14 *129:35 gpio_analog_sel[6] 3.5416 
15 *129:33 gpio_holdover[6] 3.5416 
16 *129:31 gpio_vtrip_sel[6] 3.75075 
17 *129:29 gpio_ib_mode_sel[6] 3.5416 
*END

*D_NET *130 0.0115603
*CONN
*P gpio_oeb[7] O
*P gpio_ib_mode_sel[7] O
*P gpio_vtrip_sel[7] O
*P gpio_holdover[7] O
*P gpio_analog_sel[7] O
*P gpio_analog_pol[7] O
*P gpio_dm0[7] O
*P gpio_analog_en[7] O
*P gpio_slow_sel[7] O
*P gpio_loopback_zero[7] I
*CAP
1 gpio_oeb[7] 2.68727e-05
2 gpio_ib_mode_sel[7] 2.15553e-05
3 gpio_vtrip_sel[7] 4.23586e-05
4 gpio_holdover[7] 4.23946e-05
5 gpio_analog_sel[7] 5.05115e-05
6 gpio_analog_pol[7] 2.89922e-05
7 gpio_dm0[7] 2.15553e-05
8 gpio_analog_en[7] 2.38251e-05
9 gpio_slow_sel[7] 0.000782074
10 gpio_loopback_zero[7] 0.00100864
11 *130:35 0.000968476
12 *130:33 0.000338569
13 *130:31 0.000873273
14 *130:29 0.00104958
15 *130:27 0.000902945
16 *130:25 0.000756265
17 *130:23 0.000338569
18 *130:21 0.00118995
19 gpio_analog_pol[7] gpio_inp_dis[7] 1.83579e-05
20 gpio_analog_sel[7] gpio_dm2[7] 1.58705e-05
21 gpio_holdover[7] gpio_dm2[7] 1.58705e-05
22 gpio_holdover[7] gpio_out[7] 1.83579e-05
23 gpio_slow_sel[7] gpio_out[8] 0.00100786
24 *130:21 gpio_out[8] 0.000548854
25 *130:21 *143:9 0.000827782
26 *130:27 gpio_out[8] 0.0002652
27 *130:31 gpio_out[8] 0.000375714
*RES
1 gpio_loopback_zero[7] *130:21 15.245 
2 *130:21 *130:23 3 
3 *130:23 *130:25 3 
4 *130:25 *130:27 10.8036 
5 *130:27 *130:29 5.875 
6 *130:29 *130:31 13.6786 
7 *130:31 *130:33 3 
8 *130:33 *130:35 3 
9 *130:35 gpio_slow_sel[7] 14.3766 
10 *130:35 gpio_analog_en[7] 3.5416 
11 *130:33 gpio_dm0[7] 3.5416 
12 *130:31 gpio_analog_pol[7] 3.5416 
13 *130:29 gpio_analog_sel[7] 3.5416 
14 *130:27 gpio_holdover[7] 3.5416 
15 *130:25 gpio_vtrip_sel[7] 3.5416 
16 *130:23 gpio_ib_mode_sel[7] 3.5416 
17 *130:21 gpio_oeb[7] 3.5416 
*END

*D_NET *131 0.0121816
*CONN
*P gpio_oeb[8] O
*P gpio_ib_mode_sel[8] O
*P gpio_vtrip_sel[8] O
*P gpio_holdover[8] O
*P gpio_dm0[8] O
*P gpio_analog_en[8] O
*P gpio_slow_sel[8] O
*P gpio_analog_pol[8] O
*P gpio_analog_sel[8] O
*P gpio_loopback_zero[8] I
*CAP
1 gpio_oeb[8] 2.92089e-05
2 gpio_ib_mode_sel[8] 1.54342e-05
3 gpio_vtrip_sel[8] 3.44584e-05
4 gpio_holdover[8] 4.1494e-05
5 gpio_dm0[8] 3.11713e-05
6 gpio_analog_en[8] 9.67421e-05
7 gpio_slow_sel[8] 0.000484149
8 gpio_analog_pol[8] 6.82183e-05
9 gpio_analog_sel[8] 5.66126e-05
10 gpio_loopback_zero[8] 0.000982935
11 *131:63 0.000695054
12 *131:57 0.000290948
13 *131:43 0.000764478
14 *131:27 0.000910985
15 *131:23 0.000904689
16 *131:21 0.000756505
17 *131:19 0.000340589
18 *131:17 0.00117472
19 gpio_analog_en[8] gpio_dm1[8] 0
20 gpio_analog_pol[8] gpio_inp_dis[8] 1.98624e-05
21 gpio_holdover[8] gpio_dm2[8] 1.58705e-05
22 gpio_holdover[8] gpio_out[8] 2.10935e-05
23 gpio_slow_sel[8] gpio_dm1[8] 0.000482537
24 gpio_slow_sel[8] gpio_out[8] 0.0011827
25 *131:17 *275:15 0.000617016
26 *131:23 *275:15 0.000274226
27 *131:43 gpio_dm2[8] 1.23221e-05
28 *131:43 gpio_out[8] 0.00121257
29 *131:57 gpio_out[8] 0.00010827
30 *131:63 gpio_dm1[8] 0.000271564
31 *131:63 gpio_out[8] 0.000285183
*RES
1 gpio_loopback_zero[8] *131:17 21.5322 
2 *131:17 *131:19 3 
3 *131:19 *131:21 3 
4 *131:21 *131:23 10.8036 
5 *131:23 *131:27 9.06625 
6 *131:27 gpio_analog_sel[8] 0.216983 
7 *131:27 *131:43 9.47237 
8 *131:43 gpio_analog_pol[8] 0.43945 
9 *131:43 *131:57 0.664267 
10 *131:57 *131:63 4.19725 
11 *131:63 gpio_slow_sel[8] 6.14697 
12 *131:63 gpio_analog_en[8] 3.72177 
13 *131:57 gpio_dm0[8] 0.259283 
14 *131:23 gpio_holdover[8] 3.5416 
15 *131:21 gpio_vtrip_sel[8] 3.5416 
16 *131:19 gpio_ib_mode_sel[8] 3.5416 
17 *131:17 gpio_oeb[8] 3.5416 
*END

*D_NET *132 0.0129278
*CONN
*P gpio_oeb[9] O
*P gpio_ib_mode_sel[9] O
*P gpio_vtrip_sel[9] O
*P gpio_holdover[9] O
*P gpio_analog_sel[9] O
*P gpio_analog_pol[9] O
*P gpio_dm0[9] O
*P gpio_analog_en[9] O
*P gpio_slow_sel[9] O
*P gpio_loopback_zero[9] I
*CAP
1 gpio_oeb[9] 9.02917e-05
2 gpio_ib_mode_sel[9] 5.07991e-05
3 gpio_vtrip_sel[9] 9.55412e-05
4 gpio_holdover[9] 0.000113145
5 gpio_analog_sel[9] 6.97304e-05
6 gpio_analog_pol[9] 7.71886e-05
7 gpio_dm0[9] 6.74593e-05
8 gpio_analog_en[9] 9.54413e-05
9 gpio_slow_sel[9] 0.000580013
10 gpio_loopback_zero[9] 0.000823031
11 *132:31 0.000778711
12 *132:27 0.00026295
13 *132:23 0.000642075
14 *132:19 0.00074929
15 *132:15 0.000637938
16 *132:13 0.000542819
17 *132:11 0.000309582
18 *132:9 0.00104271
19 gpio_analog_en[9] gpio_dm1[9] 0
20 gpio_analog_pol[9] gpio_inp_dis[9] 1.83579e-05
21 gpio_analog_sel[9] gpio_dm2[9] 1.58705e-05
22 gpio_analog_sel[9] *145:21 1.28256e-05
23 gpio_holdover[9] gpio_dm2[9] 1.58705e-05
24 gpio_holdover[9] gpio_out[9] 4.18853e-05
25 gpio_slow_sel[9] gpio_out[9] 0.000575008
26 *132:9 *145:21 0.000358641
27 *132:9 *265:11 0.00104831
28 *132:11 *145:21 0.000259595
29 *132:13 *145:21 0.000259595
30 *132:15 gpio_out[9] 0.000209181
31 *132:15 *145:21 0.000931621
32 *132:19 gpio_out[9] 0.000522208
33 *132:19 *145:21 0.00027601
34 *132:23 gpio_out[9] 0.000682659
35 *132:23 *145:25 0.000375714
36 *132:27 gpio_out[9] 0.000147884
37 *132:31 gpio_out[9] 0.000147884
*RES
1 gpio_loopback_zero[9] *132:9 6.94127 
2 *132:9 *132:11 0.551467 
3 *132:11 *132:13 0.551467 
4 *132:13 *132:15 1.92073 
5 *132:15 *132:19 1.24707 
6 *132:19 *132:23 2.59988 
7 *132:23 *132:27 0.626667 
8 *132:27 *132:31 0.626667 
9 *132:31 gpio_slow_sel[9] 13.6095 
10 *132:31 gpio_analog_en[9] 3.85572 
11 *132:27 gpio_dm0[9] 3.82752 
12 *132:23 gpio_analog_pol[9] 3.79932 
13 *132:19 gpio_analog_sel[9] 3.62463 
14 *132:15 gpio_holdover[9] 3.72177 
15 *132:13 gpio_vtrip_sel[9] 3.72177 
16 *132:11 gpio_ib_mode_sel[9] 3.72177 
17 *132:9 gpio_oeb[9] 3.72177 
*END

*D_NET *133 0.0080472
*CONN
*P gpio_dm0[0] O
*P gpio_oeb[0] O
*P gpio_loopback_one[0] I
*CAP
1 gpio_dm0[0] 0.00206708
2 gpio_oeb[0] 0.000187074
3 gpio_loopback_one[0] 0.000788822
4 *133:13 0.00304298
5 gpio_analog_en[0] gpio_dm0[0] 2.17773e-05
6 gpio_analog_pol[0] gpio_dm0[0] 2.17773e-05
7 gpio_ib_mode_sel[0] gpio_oeb[0] 1.9955e-05
8 gpio_ib_mode_sel[0] *133:13 5.19471e-06
9 gpio_inp_dis[0] gpio_dm0[0] 1.42947e-05
10 *89:13 gpio_dm0[0] 0.00019902
11 *89:13 gpio_oeb[0] 2.75545e-05
12 *89:13 *133:13 0.00047992
13 *89:23 gpio_dm0[0] 0.000120211
14 *89:35 gpio_dm0[0] 0.0002652
15 *89:49 gpio_dm0[0] 0.000786334
*RES
1 gpio_loopback_one[0] *133:13 21.4811 
2 *133:13 gpio_oeb[0] 0.67445 
3 *133:13 gpio_dm0[0] 26.8935 
*END

*D_NET *134 0.00956836
*CONN
*P gpio_out[1] O
*P gpio_dm2[1] O
*P gpio_dm0[1] O
*P gpio_dm1[1] O
*P gpio_loopback_one[1] I
*CAP
1 gpio_out[1] 0.000119916
2 gpio_dm2[1] 8.94692e-05
3 gpio_dm0[1] 0.000110072
4 gpio_dm1[1] 0.000528393
5 gpio_loopback_one[1] 0.0014054
6 *134:13 0.00172624
7 *134:11 0.00147027
8 *134:9 0.00181835
9 gpio_analog_en[1] gpio_dm0[1] 1.58705e-05
10 gpio_analog_en[1] gpio_dm1[1] 0
11 gpio_analog_pol[1] gpio_dm0[1] 1.86796e-05
12 gpio_analog_sel[1] gpio_dm2[1] 1.86796e-05
13 gpio_holdover[1] gpio_dm2[1] 1.3354e-05
14 gpio_holdover[1] gpio_out[1] 1.83579e-05
15 gpio_slow_sel[1] gpio_dm0[1] 3.15419e-06
16 gpio_slow_sel[1] gpio_dm1[1] 0.000468171
17 *100:9 *134:9 0.00043421
18 *100:27 gpio_dm2[1] 1.06346e-05
19 *100:27 gpio_out[1] 7.63414e-06
20 *100:27 *134:9 0.000673426
21 *100:27 *134:11 0.000229584
22 *100:33 *134:13 0.0003885
*RES
1 gpio_loopback_one[1] *134:9 8.45075 
2 *134:9 *134:11 0.983867 
3 *134:11 *134:13 3.43413 
4 *134:13 gpio_dm1[1] 5.2101 
5 *134:13 gpio_dm0[1] 3.72177 
6 *134:11 gpio_dm2[1] 3.72177 
7 *134:9 gpio_out[1] 3.72177 
*END

*D_NET *135 0.00925077
*CONN
*P gpio_dm2[10] O
*P gpio_dm1[10] O
*P gpio_inp_dis[10] O
*P gpio_loopback_one[10] I
*CAP
1 gpio_dm2[10] 5.95832e-05
2 gpio_dm1[10] 0.000756828
3 gpio_inp_dis[10] 5.05266e-05
4 gpio_loopback_one[10] 0.00148926
5 *135:29 0.00150805
6 *135:23 0.00224954
7 gpio_dm1[10] gpio_out[10] 0.000266191
8 *135:23 gpio_out[10] 0.000470957
9 gpio_analog_en[10] gpio_dm1[10] 0
10 gpio_analog_pol[10] gpio_inp_dis[10] 1.55929e-05
11 gpio_analog_sel[10] gpio_dm2[10] 1.10677e-05
12 gpio_slow_sel[10] gpio_dm1[10] 0
13 *90:13 *135:23 0.000520857
14 *90:23 *135:23 0.000120211
15 *90:31 *135:23 0.0002652
16 *90:41 gpio_dm2[10] 1.22614e-05
17 *90:41 *135:23 0.000275936
18 *90:45 gpio_dm1[10] 0.000257617
19 *90:45 *135:23 0
20 *90:45 *135:29 0.000375714
21 *90:47 gpio_dm1[10] 0.000272726
22 *90:51 gpio_dm1[10] 0.000272646
*RES
1 gpio_loopback_one[10] *135:23 20.9991 
2 *135:23 *135:29 20.6727 
3 *135:29 gpio_inp_dis[10] 0.220117 
4 *135:29 gpio_dm1[10] 9.90868 
5 *135:23 gpio_dm2[10] 0.1316 
*END

*D_NET *136 0.00991812
*CONN
*P gpio_dm2[11] O
*P gpio_inp_dis[11] O
*P gpio_dm1[11] O
*P gpio_loopback_one[11] I
*CAP
1 gpio_dm2[11] 0.000150259
2 gpio_inp_dis[11] 0.000184722
3 gpio_dm1[11] 0.000646406
4 gpio_loopback_one[11] 0.00104243
5 *136:11 0.00129744
6 *136:9 0.001659
7 gpio_analog_en[11] gpio_dm1[11] 0
8 gpio_analog_pol[11] gpio_inp_dis[11] 4.18853e-05
9 gpio_analog_sel[11] gpio_dm2[11] 4.15157e-05
10 gpio_holdover[11] gpio_dm2[11] 4.15157e-05
11 gpio_slow_sel[11] gpio_dm1[11] 0.000483247
12 *91:9 *136:9 0.000712996
13 *91:11 *136:9 0.000249482
14 *91:13 *136:9 0.000249482
15 *91:15 *136:9 0.000926648
16 *91:17 *136:9 0.000265321
17 *91:17 *136:11 0.000242158
18 *91:19 gpio_dm1[11] 0.000206517
19 *91:19 *136:11 0.000978128
20 *91:21 gpio_dm1[11] 0.000249482
21 *91:23 gpio_dm1[11] 0.000249482
*RES
1 gpio_loopback_one[11] *136:9 8.7492 
2 *136:9 *136:11 2.49727 
3 *136:11 gpio_dm1[11] 6.2911 
4 *136:11 gpio_inp_dis[11] 3.8659 
5 *136:9 gpio_dm2[11] 3.8659 
*END

*D_NET *137 0.00924274
*CONN
*P gpio_dm2[12] O
*P gpio_inp_dis[12] O
*P gpio_dm1[12] O
*P gpio_loopback_one[12] I
*CAP
1 gpio_dm2[12] 0.000131678
2 gpio_inp_dis[12] 0.000140733
3 gpio_dm1[12] 0.000590817
4 gpio_loopback_one[12] 0.00119343
5 *137:11 0.00119786
6 *137:9 0.00179141
7 gpio_analog_pol[12] gpio_inp_dis[12] 1.55929e-05
8 gpio_analog_sel[12] gpio_dm2[12] 1.74922e-05
9 gpio_holdover[12] gpio_dm2[12] 1.68933e-05
10 gpio_slow_sel[12] gpio_dm1[12] 0.000543358
11 *92:9 *137:9 0.000297081
12 *92:19 *137:9 0.000233599
13 *92:21 *137:9 0.000948342
14 *92:23 *137:9 0.0002588
15 *92:23 *137:11 0.000223886
16 *92:25 gpio_dm1[12] 0.000223886
17 *92:25 *137:11 0.0009964
18 *92:27 gpio_dm1[12] 0.000210743
19 *92:29 gpio_dm1[12] 0.000210743
*RES
1 gpio_loopback_one[12] *137:9 8.60507 
2 *137:9 *137:11 2.49727 
3 *137:11 gpio_dm1[12] 6.14697 
4 *137:11 gpio_inp_dis[12] 3.72177 
5 *137:9 gpio_dm2[12] 3.72177 
*END

*D_NET *138 0.0098444
*CONN
*P gpio_dm2[2] O
*P gpio_inp_dis[2] O
*P gpio_dm1[2] O
*P gpio_loopback_one[2] I
*CAP
1 gpio_dm2[2] 9.74295e-05
2 gpio_inp_dis[2] 0.000109534
3 gpio_dm1[2] 0.00102367
4 gpio_loopback_one[2] 0.00173968
5 *138:15 0.00194381
6 *138:13 0.00264771
7 gpio_dm2[2] gpio_out[2] 0
8 gpio_analog_en[2] gpio_dm1[2] 0
9 gpio_analog_pol[2] gpio_inp_dis[2] 1.0024e-05
10 gpio_analog_sel[2] gpio_dm2[2] 1.39027e-05
11 gpio_holdover[2] gpio_dm2[2] 1.54231e-05
12 *111:19 *138:13 0.00114566
13 *111:37 *138:13 0.00029666
14 *111:45 gpio_inp_dis[2] 9.33184e-06
15 *111:45 *138:15 0.000420283
16 *111:59 gpio_dm1[2] 0.000371286
*RES
1 gpio_loopback_one[2] *138:13 9.4401 
2 *138:13 *138:15 2.49727 
3 *138:15 gpio_dm1[2] 6.34358 
4 *138:15 gpio_inp_dis[2] 3.85728 
5 *138:13 gpio_dm2[2] 3.85728 
*END

*D_NET *139 0.010092
*CONN
*P gpio_dm2[3] O
*P gpio_inp_dis[3] O
*P gpio_dm1[3] O
*P gpio_loopback_one[3] I
*CAP
1 gpio_dm2[3] 0.000111002
2 gpio_inp_dis[3] 8.70606e-05
3 gpio_dm1[3] 0.000618403
4 gpio_loopback_one[3] 0.00113912
5 *139:11 0.00119263
6 *139:9 0.00173728
7 gpio_analog_en[3] gpio_dm1[3] 0
8 gpio_analog_pol[3] gpio_inp_dis[3] 5.17537e-05
9 gpio_analog_sel[3] gpio_dm2[3] 1.78416e-05
10 gpio_holdover[3] gpio_dm2[3] 1.78416e-05
11 gpio_slow_sel[3] gpio_dm1[3] 0.000479598
12 *122:17 *139:9 0.00100765
13 *122:19 *139:9 0.000263428
14 *122:21 *139:9 0.000263428
15 *122:23 *139:9 0.000889628
16 *122:31 *139:9 0.000284046
17 *122:31 *139:11 0.000280607
18 *122:39 gpio_dm1[3] 0.000232167
19 *122:39 gpio_dm2[3] 0
20 *122:39 *139:11 0.000893243
21 *122:41 gpio_dm1[3] 0.000265632
22 *122:43 gpio_dm1[3] 0.000259595
*RES
1 gpio_loopback_one[3] *139:9 9.23095 
2 *139:9 *139:11 2.49727 
3 *139:11 gpio_dm1[3] 6.14697 
4 *139:11 gpio_inp_dis[3] 3.72177 
5 *139:9 gpio_dm2[3] 3.72177 
*END

*D_NET *140 0.00971708
*CONN
*P gpio_dm2[4] O
*P gpio_inp_dis[4] O
*P gpio_dm1[4] O
*P gpio_loopback_one[4] I
*CAP
1 gpio_dm2[4] 0.000115729
2 gpio_inp_dis[4] 0.000123871
3 gpio_dm1[4] 0.000578099
4 gpio_loopback_one[4] 0.00155293
5 *140:11 0.00115213
6 *140:9 0.00211882
7 gpio_analog_en[4] gpio_dm1[4] 0
8 gpio_analog_pol[4] gpio_inp_dis[4] 2.56294e-05
9 gpio_analog_sel[4] gpio_dm2[4] 2.13071e-05
10 gpio_holdover[4] gpio_dm2[4] 2.01209e-05
11 gpio_slow_sel[4] gpio_dm1[4] 0.000462683
12 *127:9 *140:9 0.000411355
13 *127:21 *140:9 0.000892501
14 *127:23 *140:9 0.000289534
15 *127:23 *140:11 0.000251875
16 *127:25 gpio_dm1[4] 0.000199189
17 *127:25 *140:11 0.000974447
18 *127:27 gpio_dm1[4] 0.000263428
19 *127:29 gpio_dm1[4] 0.000263428
*RES
1 gpio_loopback_one[4] *140:9 9.23095 
2 *140:9 *140:11 2.49727 
3 *140:11 gpio_dm1[4] 6.14697 
4 *140:11 gpio_inp_dis[4] 3.72177 
5 *140:9 gpio_dm2[4] 3.72177 
*END

*D_NET *141 0.00927064
*CONN
*P gpio_inp_dis[5] O
*P gpio_dm1[5] O
*P gpio_dm2[5] O
*P gpio_loopback_one[5] I
*CAP
1 gpio_inp_dis[5] 0.00010427
2 gpio_dm1[5] 0.000718912
3 gpio_dm2[5] 5.50674e-05
4 gpio_loopback_one[5] 0.00189263
5 *141:27 0.00150408
6 *141:13 0.00262859
7 *141:13 gpio_out[5] 0
8 *141:27 gpio_out[5] 0
9 gpio_analog_en[5] gpio_dm1[5] 3.18569e-05
10 gpio_analog_pol[5] gpio_inp_dis[5] 1.98624e-05
11 gpio_analog_sel[5] gpio_dm2[5] 1.39027e-05
12 gpio_holdover[5] *141:13 1.33443e-06
13 gpio_holdover[5] *141:27 1.49692e-05
14 gpio_slow_sel[5] gpio_dm1[5] 0.000332488
15 *128:25 *141:13 0.000565803
16 *128:43 gpio_dm1[5] 0.00024073
17 *128:43 *141:27 0.000784257
18 *128:61 gpio_dm1[5] 0.000361879
*RES
1 gpio_loopback_one[5] *141:13 13.0914 
2 *141:13 gpio_dm2[5] 0.243617 
3 *141:13 *141:27 6.0984 
4 *141:27 gpio_dm1[5] 16.3977 
5 *141:27 gpio_inp_dis[5] 3.84475 
*END

*D_NET *142 0.00906546
*CONN
*P gpio_dm2[6] O
*P gpio_inp_dis[6] O
*P gpio_dm1[6] O
*P gpio_loopback_one[6] I
*CAP
1 gpio_dm2[6] 0.000105454
2 gpio_inp_dis[6] 0.000127656
3 gpio_dm1[6] 0.000931165
4 gpio_loopback_one[6] 0.00164533
5 *142:11 0.00161286
6 *142:9 0.00230482
7 gpio_dm2[6] gpio_out[6] 0
8 gpio_analog_en[6] gpio_dm1[6] 0
9 gpio_analog_pol[6] gpio_inp_dis[6] 1.51583e-05
10 gpio_analog_sel[6] gpio_dm2[6] 1.86796e-05
11 gpio_holdover[6] gpio_dm2[6] 1.86796e-05
12 *129:17 *142:9 0.00090836
13 *129:33 *142:9 0.000274226
14 *129:53 gpio_dm1[6] 0.000180723
15 *129:53 gpio_inp_dis[6] 1.15546e-05
16 *129:53 *142:11 0.000910786
*RES
1 gpio_loopback_one[6] *142:9 9.07428 
2 *142:9 *142:11 2.49727 
3 *142:11 gpio_dm1[6] 6.14697 
4 *142:11 gpio_inp_dis[6] 3.72177 
5 *142:9 gpio_dm2[6] 3.72177 
*END

*D_NET *143 0.0117872
*CONN
*P gpio_dm2[7] O
*P gpio_inp_dis[7] O
*P gpio_dm1[7] O
*P gpio_loopback_one[7] I
*CAP
1 gpio_dm2[7] 0.000130165
2 gpio_inp_dis[7] 0.00013685
3 gpio_dm1[7] 0.000317715
4 gpio_loopback_one[7] 0.000782731
5 *143:11 0.000625181
6 *143:9 0.00108351
7 gpio_dm1[7] gpio_out[7] 0.00119937
8 gpio_dm1[7] gpio_out[8] 0.00118873
9 *143:9 gpio_out[7] 0.000460083
10 *143:9 gpio_out[8] 0.00254684
11 *143:11 gpio_out[7] 0.00121177
12 *143:11 gpio_out[8] 0.00122632
13 gpio_analog_pol[7] gpio_inp_dis[7] 1.83579e-05
14 gpio_analog_sel[7] gpio_dm2[7] 1.58705e-05
15 gpio_holdover[7] gpio_dm2[7] 1.58705e-05
16 *130:21 *143:9 0.000827782
*RES
1 gpio_loopback_one[7] *143:9 8.91762 
2 *143:9 *143:11 2.49727 
3 *143:11 gpio_dm1[7] 6.14697 
4 *143:11 gpio_inp_dis[7] 3.72177 
5 *143:9 gpio_dm2[7] 3.72177 
*END

*D_NET *144 0.0100005
*CONN
*P gpio_dm2[8] O
*P gpio_inp_dis[8] O
*P gpio_dm1[8] O
*P gpio_loopback_one[8] I
*CAP
1 gpio_dm2[8] 0.000206469
2 gpio_inp_dis[8] 0.000169807
3 gpio_dm1[8] 0.000659786
4 gpio_loopback_one[8] 0.00108776
5 *144:11 0.00131769
6 *144:9 0.00178233
7 gpio_dm1[8] gpio_out[8] 0.000240843
8 gpio_inp_dis[8] *275:15 7.87612e-05
9 *144:9 *275:15 0.00247857
10 *144:11 gpio_out[8] 3.78827e-05
11 *144:11 *275:15 0.00113844
12 gpio_analog_en[8] gpio_dm1[8] 0
13 gpio_analog_pol[8] gpio_inp_dis[8] 1.98624e-05
14 gpio_holdover[8] gpio_dm2[8] 1.58705e-05
15 gpio_slow_sel[8] gpio_dm1[8] 0.000482537
16 *131:43 gpio_dm2[8] 1.23221e-05
17 *131:63 gpio_dm1[8] 0.000271564
*RES
1 gpio_loopback_one[8] *144:9 8.90587 
2 *144:9 *144:11 2.49727 
3 *144:11 gpio_dm1[8] 6.2911 
4 *144:11 gpio_inp_dis[8] 3.8659 
5 *144:9 gpio_dm2[8] 3.8659 
*END

*D_NET *145 0.00856334
*CONN
*P gpio_dm2[9] O
*P gpio_inp_dis[9] O
*P gpio_dm1[9] O
*P gpio_loopback_one[9] I
*CAP
1 gpio_dm2[9] 4.31106e-05
2 gpio_inp_dis[9] 4.97956e-05
3 gpio_dm1[9] 0.000774075
4 gpio_loopback_one[9] 0.00131306
5 *145:25 0.00153932
6 *145:21 0.00207162
7 *145:21 *265:11 0.000248262
8 gpio_analog_en[9] gpio_dm1[9] 0
9 gpio_analog_pol[9] gpio_inp_dis[9] 1.83579e-05
10 gpio_analog_sel[9] gpio_dm2[9] 1.58705e-05
11 gpio_analog_sel[9] *145:21 1.28256e-05
12 gpio_holdover[9] gpio_dm2[9] 1.58705e-05
13 *132:9 *145:21 0.000358641
14 *132:11 *145:21 0.000259595
15 *132:13 *145:21 0.000259595
16 *132:15 *145:21 0.000931621
17 *132:19 *145:21 0.00027601
18 *132:23 *145:25 0.000375714
*RES
1 gpio_loopback_one[9] *145:21 12.8752 
2 *145:21 *145:25 17.4993 
3 *145:25 gpio_dm1[9] 17.2202 
4 *145:25 gpio_inp_dis[9] 3.5416 
5 *145:21 gpio_dm2[9] 0.1316 
*END

*D_NET *146 0.0181944
*CONN
*P gpio_in[0] I
*I *313:wb_clk_i I *D user_proj_timer
*CAP
1 gpio_in[0] 0.00909719
2 *313:wb_clk_i 0.00909719
*RES
1 gpio_in[0] *313:wb_clk_i 36.8318 
*END

*D_NET *157 0.0226381
*CONN
*P gpio_in[1] I
*I *313:wb_rst_i I *D user_proj_timer
*CAP
1 gpio_in[1] 0.011319
2 *313:wb_rst_i 0.011319
*RES
1 gpio_in[1] *313:wb_rst_i 44.1027 
*END

*D_NET *234 0.0063972
*CONN
*P gpio_oeb[13] O
*P gpio_inp_dis[13] O
*P gpio_loopback_one[13] I
*CAP
1 gpio_oeb[13] 6.53358e-05
2 gpio_inp_dis[13] 0.00202384
3 gpio_loopback_one[13] 0.000281938
4 *234:11 0.00237111
5 gpio_analog_pol[13] gpio_inp_dis[13] 2.14465e-05
6 gpio_ib_mode_sel[13] gpio_oeb[13] 2.06255e-05
7 gpio_ib_mode_sel[13] *234:11 0.000614291
8 *93:33 gpio_inp_dis[13] 0.000120211
9 *93:45 gpio_inp_dis[13] 0.0002652
10 *93:61 gpio_inp_dis[13] 0.000259595
11 *93:65 gpio_inp_dis[13] 0.000353611
*RES
1 gpio_loopback_one[13] *234:11 14.4427 
2 *234:11 gpio_inp_dis[13] 12.966 
3 *234:11 gpio_oeb[13] 0.167633 
*END

*D_NET *235 0.00715273
*CONN
*P gpio_oeb[14] O
*P gpio_inp_dis[14] O
*P gpio_loopback_one[14] I
*CAP
1 gpio_oeb[14] 0.000172289
2 gpio_inp_dis[14] 0.00175721
3 gpio_loopback_one[14] 0.000537565
4 *235:9 0.00246707
5 gpio_analog_pol[14] gpio_inp_dis[14] 2.14465e-05
6 gpio_ib_mode_sel[14] gpio_oeb[14] 2.39886e-05
7 *94:13 gpio_inp_dis[14] 0.000268775
8 *94:13 *235:9 0.00096358
9 *94:47 gpio_inp_dis[14] 0.000940814
*RES
1 gpio_loopback_one[14] *235:9 5.83207 
2 *235:9 gpio_inp_dis[14] 9.7503 
3 *235:9 gpio_oeb[14] 3.8659 
*END

*D_NET *236 0.0110855
*CONN
*P gpio_inp_dis[15] O
*P gpio_oeb[15] O
*P gpio_loopback_one[15] I
*CAP
1 gpio_inp_dis[15] 0.00188049
2 gpio_oeb[15] 0.000119033
3 gpio_loopback_one[15] 0.00090885
4 *236:9 0.00290837
5 gpio_analog_pol[15] gpio_inp_dis[15] 0.0010624
6 gpio_ib_mode_sel[15] gpio_inp_dis[15] 0.000255335
7 gpio_ib_mode_sel[15] *236:9 0.00298245
8 gpio_out[15] gpio_inp_dis[15] 0.0009686
*RES
1 gpio_loopback_one[15] *236:9 9.29184 
2 *236:9 gpio_oeb[15] 5.64214 
3 *236:9 gpio_inp_dis[15] 11.0498 
*END

*D_NET *237 0.00837085
*CONN
*P gpio_inp_dis[16] O
*P gpio_oeb[16] O
*P gpio_loopback_one[16] I
*CAP
1 gpio_inp_dis[16] 0.00187988
2 gpio_oeb[16] 8.39689e-05
3 gpio_loopback_one[16] 0.00066961
4 *237:11 0.00263346
5 gpio_analog_pol[16] gpio_inp_dis[16] 0.0010624
6 gpio_ib_mode_sel[16] gpio_inp_dis[16] 0.000208314
7 gpio_ib_mode_sel[16] gpio_oeb[16] 0
8 gpio_ib_mode_sel[16] *237:11 0.00105222
9 gpio_out[16] gpio_inp_dis[16] 0.000780998
*RES
1 gpio_loopback_one[16] *237:11 8.63303 
2 *237:11 gpio_oeb[16] 5.02607 
3 *237:11 gpio_inp_dis[16] 11.5878 
*END

*D_NET *238 0.00837247
*CONN
*P gpio_inp_dis[17] O
*P gpio_oeb[17] O
*P gpio_loopback_one[17] I
*CAP
1 gpio_inp_dis[17] 0.00196088
2 gpio_oeb[17] 0.00256194
3 gpio_loopback_one[17] 0.000601054
4 gpio_analog_pol[17] gpio_inp_dis[17] 0.000671101
5 gpio_ib_mode_sel[17] gpio_inp_dis[17] 0.00021819
6 gpio_ib_mode_sel[17] gpio_oeb[17] 0.00171901
7 gpio_out[17] gpio_inp_dis[17] 0.000640296
*RES
1 gpio_loopback_one[17] gpio_oeb[17] 11.64 
2 gpio_oeb[17] gpio_inp_dis[17] 15.3096 
*END

*D_NET *239 0.00879701
*CONN
*P gpio_inp_dis[18] O
*P gpio_oeb[18] O
*P gpio_loopback_one[18] I
*CAP
1 gpio_inp_dis[18] 0.00188003
2 gpio_oeb[18] 0.00250821
3 gpio_loopback_one[18] 0.000628175
4 gpio_ib_mode_sel[18] gpio_inp_dis[18] 0.000124389
5 gpio_ib_mode_sel[18] gpio_oeb[18] 0.00167211
6 *98:27 gpio_inp_dis[18] 0.0009686
7 *98:53 gpio_inp_dis[18] 0.0010155
*RES
1 gpio_loopback_one[18] gpio_oeb[18] 12.3893 
2 gpio_oeb[18] gpio_inp_dis[18] 15.9869 
*END

*D_NET *240 0.0110229
*CONN
*P gpio_inp_dis[19] O
*P gpio_oeb[19] O
*P gpio_loopback_one[19] I
*CAP
1 gpio_inp_dis[19] 0.00171714
2 gpio_oeb[19] 6.33454e-05
3 gpio_loopback_one[19] 0.00103518
4 *240:9 0.00281566
5 gpio_analog_pol[19] gpio_inp_dis[19] 0.0012031
6 gpio_ib_mode_sel[19] gpio_inp_dis[19] 0.000140702
7 gpio_ib_mode_sel[19] *240:9 0.00331363
8 gpio_out[19] gpio_inp_dis[19] 0.000734097
*RES
1 gpio_loopback_one[19] *240:9 9.59095 
2 *240:9 gpio_oeb[19] 4.70464 
3 *240:9 gpio_inp_dis[19] 10.1566 
*END

*D_NET *241 0.0106904
*CONN
*P gpio_inp_dis[20] O
*P gpio_oeb[20] O
*P gpio_loopback_one[20] I
*CAP
1 gpio_inp_dis[20] 0.00193442
2 gpio_oeb[20] 0.00284517
3 gpio_loopback_one[20] 0.00091075
4 gpio_analog_pol[20] gpio_inp_dis[20] 0.0009686
5 gpio_ib_mode_sel[20] gpio_inp_dis[20] 0.000124389
6 gpio_ib_mode_sel[20] gpio_oeb[20] 0.00293843
7 gpio_out[20] gpio_inp_dis[20] 0.0009686
*RES
1 gpio_loopback_one[20] gpio_oeb[20] 12.8976 
2 gpio_oeb[20] gpio_inp_dis[20] 16.5941 
*END

*D_NET *242 0.0107689
*CONN
*P gpio_inp_dis[21] O
*P gpio_oeb[21] O
*P gpio_loopback_one[21] I
*CAP
1 gpio_inp_dis[21] 0.00167732
2 gpio_oeb[21] 5.32975e-05
3 gpio_loopback_one[21] 0.000842339
4 *242:9 0.00257295
5 gpio_analog_pol[21] gpio_inp_dis[21] 0.0010155
6 gpio_analog_sel[21] gpio_inp_dis[21] 0.000225219
7 gpio_dm2[21] gpio_inp_dis[21] 0.000225219
8 gpio_ib_mode_sel[21] gpio_inp_dis[21] 0.000402912
9 gpio_ib_mode_sel[21] *242:9 0.00270392
10 gpio_vtrip_sel[21] gpio_inp_dis[21] 0.000225219
11 *102:37 gpio_inp_dis[21] 0.000825017
*RES
1 gpio_loopback_one[21] *242:9 9.0648 
2 *242:9 gpio_oeb[21] 4.49929 
3 *242:9 gpio_inp_dis[21] 10.3837 
*END

*D_NET *243 0.0105127
*CONN
*P gpio_inp_dis[22] O
*P gpio_oeb[22] O
*P gpio_loopback_one[22] I
*CAP
1 gpio_inp_dis[22] 0.00153316
2 gpio_oeb[22] 6.33454e-05
3 gpio_loopback_one[22] 0.000934614
4 *243:9 0.00253112
5 gpio_analog_pol[22] gpio_inp_dis[22] 0.0011093
6 gpio_analog_sel[22] gpio_inp_dis[22] 0.000225219
7 gpio_dm2[22] gpio_inp_dis[22] 0.000225219
8 gpio_out[22] gpio_inp_dis[22] 0.000780998
9 *103:11 gpio_inp_dis[22] 0.000265091
10 *103:11 *243:9 0.00284463
*RES
1 gpio_loopback_one[22] *243:9 9.48636 
2 *243:9 gpio_oeb[22] 4.70464 
3 *243:9 gpio_inp_dis[22] 10.1566 
*END

*D_NET *244 0.00954958
*CONN
*P gpio_inp_dis[23] O
*P gpio_oeb[23] O
*P gpio_loopback_one[23] I
*CAP
1 gpio_inp_dis[23] 0.00200531
2 gpio_oeb[23] 0.00284564
3 gpio_loopback_one[23] 0.00084033
4 gpio_analog_pol[23] gpio_inp_dis[23] 0.000671101
5 gpio_ib_mode_sel[23] gpio_inp_dis[23] 7.7488e-05
6 gpio_ib_mode_sel[23] gpio_oeb[23] 0.00246942
7 gpio_out[23] gpio_inp_dis[23] 0.000640296
*RES
1 gpio_loopback_one[23] gpio_oeb[23] 13.4091 
2 gpio_oeb[23] gpio_inp_dis[23] 16.9327 
*END

*D_NET *245 0.00767363
*CONN
*P gpio_inp_dis[24] O
*P gpio_oeb[24] O
*P gpio_loopback_one[24] I
*CAP
1 gpio_inp_dis[24] 0.00180032
2 gpio_oeb[24] 9.86295e-05
3 gpio_loopback_one[24] 0.00105774
4 *245:13 0.00295669
5 gpio_analog_pol[24] gpio_inp_dis[24] 2.14382e-05
6 *105:21 gpio_inp_dis[24] 7.41173e-05
7 *105:21 gpio_oeb[24] 2.71351e-05
8 *105:21 *245:13 0.00124341
9 *105:41 gpio_inp_dis[24] 0.000274226
10 *105:77 gpio_inp_dis[24] 0.000119923
*RES
1 gpio_loopback_one[24] *245:13 8.77035 
2 *245:13 gpio_oeb[24] 3.72177 
3 *245:13 gpio_inp_dis[24] 9.60617 
*END

*D_NET *246 0.00915928
*CONN
*P gpio_inp_dis[25] O
*P gpio_oeb[25] O
*P gpio_loopback_one[25] I
*CAP
1 gpio_inp_dis[25] 0.00185712
2 gpio_oeb[25] 0.000108109
3 gpio_loopback_one[25] 0.00155504
4 *246:9 0.00352027
5 gpio_analog_pol[25] gpio_inp_dis[25] 2.75168e-05
6 gpio_ib_mode_sel[25] gpio_oeb[25] 1.33458e-05
7 *106:9 *246:9 0.00107415
8 *106:23 gpio_inp_dis[25] 0.000327497
9 *106:23 gpio_oeb[25] 1.61892e-05
10 *106:33 gpio_inp_dis[25] 0.000294392
11 *106:75 gpio_inp_dis[25] 0.000365645
*RES
1 gpio_loopback_one[25] *246:9 8.83302 
2 *246:9 gpio_oeb[25] 3.72177 
3 *246:9 gpio_inp_dis[25] 9.60617 
*END

*D_NET *247 0.00833135
*CONN
*P gpio_inp_dis[26] O
*P gpio_oeb[26] O
*P gpio_loopback_one[26] I
*CAP
1 gpio_inp_dis[26] 0.00164226
2 gpio_oeb[26] 7.59706e-05
3 gpio_loopback_one[26] 0.00100145
4 *247:9 0.00271969
5 gpio_analog_pol[26] gpio_inp_dis[26] 2.14382e-05
6 gpio_ib_mode_sel[26] gpio_oeb[26] 1.78312e-05
7 *107:19 gpio_inp_dis[26] 0.000172947
8 *107:19 *247:9 0.00137228
9 *107:41 gpio_inp_dis[26] 0.0002652
10 *107:65 gpio_inp_dis[26] 0.000265632
11 *107:75 gpio_inp_dis[26] 0.000239015
12 *107:85 gpio_inp_dis[26] 0.000537636
*RES
1 gpio_loopback_one[26] *247:9 8.52047 
2 *247:9 gpio_oeb[26] 3.68338 
3 *247:9 gpio_inp_dis[26] 20.4228 
*END

*D_NET *248 0.00959116
*CONN
*P gpio_inp_dis[27] O
*P gpio_oeb[27] O
*P gpio_loopback_one[27] I
*CAP
1 gpio_inp_dis[27] 0.002105
2 gpio_oeb[27] 0.000108278
3 gpio_loopback_one[27] 0.000966033
4 *248:13 0.00317931
5 gpio_analog_pol[27] gpio_inp_dis[27] 2.14382e-05
6 gpio_ib_mode_sel[27] gpio_oeb[27] 8.39203e-06
7 *108:17 gpio_inp_dis[27] 0.000223608
8 *108:17 gpio_oeb[27] 6.85458e-06
9 *108:17 *248:13 0.00228004
10 *108:37 gpio_inp_dis[27] 0.00029666
11 *108:77 gpio_inp_dis[27] 0.000395558
*RES
1 gpio_loopback_one[27] *248:13 8.49227 
2 *248:13 gpio_oeb[27] 3.79305 
3 *248:13 gpio_inp_dis[27] 10.0378 
*END

*D_NET *249 0.00789287
*CONN
*P gpio_inp_dis[28] O
*P gpio_oeb[28] O
*P gpio_loopback_one[28] I
*CAP
1 gpio_inp_dis[28] 0.00173875
2 gpio_oeb[28] 9.96479e-05
3 gpio_loopback_one[28] 0.00100124
4 *249:13 0.00283964
5 gpio_analog_pol[28] gpio_inp_dis[28] 2.14382e-05
6 gpio_ib_mode_sel[28] gpio_oeb[28] 2.17773e-05
7 *109:19 gpio_inp_dis[28] 0.000189962
8 *109:19 *249:13 0.00115271
9 *109:39 gpio_inp_dis[28] 0.000274226
10 *109:83 gpio_inp_dis[28] 0.000187834
11 *109:93 gpio_inp_dis[28] 0.000365645
*RES
1 gpio_loopback_one[28] *249:13 8.45702 
2 *249:13 gpio_oeb[28] 3.72177 
3 *249:13 gpio_inp_dis[28] 9.60617 
*END

*D_NET *250 0.00815526
*CONN
*P gpio_inp_dis[29] O
*P gpio_oeb[29] O
*P gpio_loopback_one[29] I
*CAP
1 gpio_inp_dis[29] 0.00116869
2 gpio_oeb[29] 2.89678e-05
3 gpio_loopback_one[29] 0.000963196
4 *250:17 0.00216086
5 gpio_analog_pol[29] gpio_inp_dis[29] 2.14382e-05
6 *110:21 gpio_inp_dis[29] 0.000101284
7 *110:21 gpio_oeb[29] 3.11708e-05
8 *110:21 *250:17 0.0012148
9 *110:31 gpio_inp_dis[29] 0.000229844
10 *110:41 gpio_inp_dis[29] 0.000668384
11 *110:51 gpio_inp_dis[29] 0.000198472
12 *110:61 gpio_inp_dis[29] 0.000233255
13 *110:71 gpio_inp_dis[29] 0.000229844
14 *110:83 gpio_inp_dis[29] 0.000905046
*RES
1 gpio_loopback_one[29] *250:17 15.6755 
2 *250:17 gpio_oeb[29] 3.5416 
3 *250:17 gpio_inp_dis[29] 36.9345 
*END

*D_NET *251 0.00897817
*CONN
*P gpio_oeb[30] O
*P gpio_inp_dis[30] O
*P gpio_loopback_one[30] I
*CAP
1 gpio_oeb[30] 0.000135327
2 gpio_inp_dis[30] 0.00201465
3 gpio_loopback_one[30] 0.0010606
4 *251:13 0.00321058
5 gpio_analog_pol[30] gpio_inp_dis[30] 1.65147e-05
6 gpio_ib_mode_sel[30] gpio_oeb[30] 1.30543e-05
7 *112:15 gpio_inp_dis[30] 0.000527657
8 *112:15 *251:13 0.00114338
9 *112:37 gpio_inp_dis[30] 0.00029666
10 *112:65 gpio_inp_dis[30] 0.000139478
11 *112:85 gpio_inp_dis[30] 0.000420283
*RES
1 gpio_loopback_one[30] *251:13 11.6328 
2 *251:13 gpio_inp_dis[30] 13.6076 
3 *251:13 gpio_oeb[30] 0.520917 
*END

*D_NET *252 0.00863867
*CONN
*P gpio_inp_dis[31] O
*P gpio_oeb[31] O
*P gpio_loopback_one[31] I
*CAP
1 gpio_inp_dis[31] 0.00187798
2 gpio_oeb[31] 0.000123429
3 gpio_loopback_one[31] 0.000866767
4 *252:9 0.00286818
5 gpio_analog_pol[31] gpio_inp_dis[31] 2.14382e-05
6 gpio_ib_mode_sel[31] gpio_oeb[31] 1.31689e-05
7 *113:17 gpio_inp_dis[31] 0.00015786
8 *113:17 gpio_oeb[31] 1.40607e-05
9 *113:17 *252:9 0.00205592
10 *113:37 gpio_inp_dis[31] 0.000274226
11 *113:77 gpio_inp_dis[31] 0.000365645
12 *113:101 gpio_inp_dis[31] 0
*RES
1 gpio_loopback_one[31] *252:9 7.89302 
2 *252:9 gpio_oeb[31] 3.72177 
3 *252:9 gpio_inp_dis[31] 9.60617 
*END

*D_NET *253 0.00897561
*CONN
*P gpio_inp_dis[32] O
*P gpio_oeb[32] O
*P gpio_loopback_one[32] I
*CAP
1 gpio_inp_dis[32] 0.00178518
2 gpio_oeb[32] 8.62281e-05
3 gpio_loopback_one[32] 0.00112213
4 *253:13 0.00299354
5 gpio_analog_pol[32] gpio_inp_dis[32] 1.65147e-05
6 *114:17 gpio_inp_dis[32] 0.000206392
7 *114:17 gpio_oeb[32] 2.95395e-05
8 *114:17 *253:13 0.001777
9 *114:31 gpio_inp_dis[32] 0.000148221
10 *114:45 gpio_inp_dis[32] 0.000390585
11 *114:77 gpio_inp_dis[32] 0.000420283
*RES
1 gpio_loopback_one[32] *253:13 9.12207 
2 *253:13 gpio_oeb[32] 3.85415 
3 *253:13 gpio_inp_dis[32] 9.66178 
*END

*D_NET *254 0.00838987
*CONN
*P gpio_inp_dis[33] O
*P gpio_oeb[33] O
*P gpio_loopback_one[33] I
*CAP
1 gpio_inp_dis[33] 0.0017145
2 gpio_oeb[33] 0.00025097
3 gpio_loopback_one[33] 0.00141887
4 *254:13 0.00338434
5 gpio_analog_pol[33] gpio_inp_dis[33] 2.46032e-05
6 gpio_ib_mode_sel[33] gpio_oeb[33] 4.5752e-05
7 *115:17 gpio_inp_dis[33] 1.19602e-05
8 *115:17 *254:13 0.000611472
9 *115:93 gpio_inp_dis[33] 0.000927401
*RES
1 gpio_loopback_one[33] *254:13 9.39153 
2 *254:13 gpio_oeb[33] 12.6838 
3 *254:13 gpio_inp_dis[33] 9.42992 
*END

*D_NET *255 0.00840726
*CONN
*P gpio_inp_dis[34] O
*P gpio_oeb[34] O
*P gpio_loopback_one[34] I
*CAP
1 gpio_inp_dis[34] 0.00188232
2 gpio_oeb[34] 0.00011168
3 gpio_loopback_one[34] 0.00107638
4 *255:9 0.00307037
5 gpio_analog_pol[34] gpio_inp_dis[34] 3.42534e-05
6 gpio_ib_mode_sel[34] gpio_oeb[34] 1.70108e-05
7 *116:21 gpio_inp_dis[34] 0.000186724
8 *116:21 gpio_oeb[34] 5.96283e-06
9 *116:21 *255:9 0.00135984
10 *116:41 gpio_inp_dis[34] 0.000274226
11 *116:81 gpio_inp_dis[34] 0.0003885
*RES
1 gpio_loopback_one[34] *255:9 8.67635 
2 *255:9 gpio_oeb[34] 3.72177 
3 *255:9 gpio_inp_dis[34] 9.65317 
*END

*D_NET *256 0.00888329
*CONN
*P gpio_inp_dis[35] O
*P gpio_oeb[35] O
*P gpio_loopback_one[35] I
*CAP
1 gpio_inp_dis[35] 0.00132345
2 gpio_oeb[35] 7.96403e-05
3 gpio_loopback_one[35] 0.00112869
4 *256:13 0.00253178
5 gpio_analog_pol[35] gpio_inp_dis[35] 2.05271e-05
6 *117:19 gpio_inp_dis[35] 0.000113793
7 *117:19 gpio_oeb[35] 1.9968e-05
8 *117:19 *256:13 0.00107744
9 *117:31 gpio_inp_dis[35] 0.000251706
10 *117:31 gpio_oeb[35] 3.88869e-06
11 *117:45 gpio_inp_dis[35] 0.000711471
12 *117:55 gpio_inp_dis[35] 0.000207458
13 *117:65 gpio_inp_dis[35] 0.000239015
14 *117:75 gpio_inp_dis[35] 0.000239015
15 *117:89 gpio_inp_dis[35] 0.000935449
*RES
1 gpio_loopback_one[35] *256:13 8.78993 
2 *256:13 gpio_oeb[35] 3.70375 
3 *256:13 gpio_inp_dis[35] 9.52392 
*END

*D_NET *257 0.00917561
*CONN
*P gpio_oeb[36] O
*P gpio_inp_dis[36] O
*P gpio_loopback_one[36] I
*CAP
1 gpio_oeb[36] 8.76757e-05
2 gpio_inp_dis[36] 0.00226154
3 gpio_loopback_one[36] 0.00130558
4 *257:9 0.0036548
5 gpio_analog_pol[36] gpio_inp_dis[36] 2.14382e-05
6 gpio_ib_mode_sel[36] gpio_oeb[36] 1.58549e-05
7 *118:19 gpio_inp_dis[36] 0.000295258
8 *118:19 *257:9 0.000865964
9 *118:41 gpio_inp_dis[36] 0.00029666
10 *118:81 gpio_inp_dis[36] 0.000370834
*RES
1 gpio_loopback_one[36] *257:9 29.2112 
2 *257:9 gpio_inp_dis[36] 17.2416 
3 *257:9 gpio_oeb[36] 4.30499 
*END

*D_NET *258 0.00953963
*CONN
*P gpio_inp_dis[37] O
*P gpio_oeb[37] O
*P gpio_loopback_one[37] I
*CAP
1 gpio_inp_dis[37] 0.00193894
2 gpio_oeb[37] 8.91553e-05
3 gpio_loopback_one[37] 0.000937473
4 *258:13 0.00296557
5 gpio_analog_pol[37] gpio_inp_dis[37] 4.65732e-05
6 gpio_ib_mode_sel[37] gpio_oeb[37] 9.23318e-06
7 *119:11 gpio_inp_dis[37] 0.000120587
8 *119:11 *258:13 0.00179807
9 *119:17 gpio_oeb[37] 1.77414e-05
10 *119:27 gpio_inp_dis[37] 0.00029666
11 *119:55 gpio_inp_dis[37] 0.000274893
12 *119:67 gpio_inp_dis[37] 0.00104474
*RES
1 gpio_loopback_one[37] *258:13 8.25727 
2 *258:13 gpio_oeb[37] 3.85885 
3 *258:13 gpio_inp_dis[37] 10.4153 
*END

*D_NET *259 0.00753827
*CONN
*P gpio_oeb[38] O
*P gpio_inp_dis[38] O
*P gpio_loopback_one[38] I
*CAP
1 gpio_oeb[38] 3.76732e-05
2 gpio_inp_dis[38] 0.00169543
3 gpio_loopback_one[38] 0.000237255
4 *259:9 0.00197036
5 gpio_analog_pol[38] gpio_inp_dis[38] 0
6 gpio_ib_mode_sel[38] gpio_oeb[38] 0
7 *120:9 gpio_inp_dis[38] 0.000324825
8 *120:9 *259:9 0.000644138
9 *120:11 gpio_inp_dis[38] 0.000324825
10 *120:17 gpio_inp_dis[38] 0.000962846
11 *120:51 gpio_inp_dis[38] 0.00134092
*RES
1 gpio_loopback_one[38] *259:9 5.07918 
2 *259:9 gpio_inp_dis[38] 9.96404 
3 *259:9 gpio_oeb[38] 4.07964 
*END

*D_NET *260 0.00753567
*CONN
*P gpio_oeb[39] O
*P gpio_inp_dis[39] O
*P gpio_loopback_one[39] I
*CAP
1 gpio_oeb[39] 3.76732e-05
2 gpio_inp_dis[39] 0.00134149
3 gpio_loopback_one[39] 0.00022563
4 *260:9 0.00160479
5 gpio_analog_pol[39] gpio_inp_dis[39] 0
6 gpio_ib_mode_sel[39] gpio_oeb[39] 0
7 *121:9 gpio_inp_dis[39] 0.000227791
8 *121:9 *260:9 0.000641148
9 *121:11 gpio_inp_dis[39] 0.000321337
10 *121:13 gpio_inp_dis[39] 0.000931045
11 *121:15 gpio_inp_dis[39] 0.000274436
12 *121:17 gpio_inp_dis[39] 0.000321337
13 *121:19 gpio_inp_dis[39] 0.000321337
14 *121:21 gpio_inp_dis[39] 0.00128766
*RES
1 gpio_loopback_one[39] *260:9 5.07448 
2 *260:9 gpio_inp_dis[39] 10.5312 
3 *260:9 gpio_oeb[39] 4.07964 
*END

*D_NET *261 0.00589507
*CONN
*P gpio_oeb[40] O
*P gpio_inp_dis[40] O
*P gpio_loopback_one[40] I
*CAP
1 gpio_oeb[40] 0.000107977
2 gpio_inp_dis[40] 0.00125072
3 gpio_loopback_one[40] 0.000313047
4 *261:13 0.00167174
5 gpio_analog_pol[40] gpio_inp_dis[40] 0
6 gpio_ib_mode_sel[40] gpio_oeb[40] 0
7 *123:9 gpio_inp_dis[40] 0.00015942
8 *123:9 *261:13 0.00039105
9 *123:11 gpio_inp_dis[40] 0.00019056
10 *123:13 gpio_inp_dis[40] 0.000544456
11 *123:15 gpio_inp_dis[40] 0.000163337
12 *123:17 gpio_inp_dis[40] 0.00019056
13 *123:19 gpio_inp_dis[40] 0.00019056
14 *123:21 gpio_inp_dis[40] 0.00072164
*RES
1 gpio_loopback_one[40] *261:13 6.72486 
2 *261:13 gpio_inp_dis[40] 11.6949 
3 *261:13 gpio_oeb[40] 5.95464 
*END

*D_NET *262 0.00581103
*CONN
*P gpio_oeb[41] O
*P gpio_inp_dis[41] O
*P gpio_loopback_one[41] I
*CAP
1 gpio_oeb[41] 0.000102286
2 gpio_inp_dis[41] 0.00127894
3 gpio_loopback_one[41] 0.000289331
4 *262:17 0.00167056
5 gpio_analog_pol[41] gpio_inp_dis[41] 0
6 gpio_ib_mode_sel[41] gpio_oeb[41] 0
7 *124:9 gpio_inp_dis[41] 0.000213865
8 *124:9 *262:17 0.000254936
9 *124:11 gpio_inp_dis[41] 0.00019056
10 *124:13 gpio_inp_dis[41] 0.000544456
11 *124:15 gpio_inp_dis[41] 0.000163337
12 *124:17 gpio_inp_dis[41] 0.00019056
13 *124:19 gpio_inp_dis[41] 0.00019056
14 *124:21 gpio_inp_dis[41] 0.00072164
*RES
1 gpio_loopback_one[41] *262:17 7.70381 
2 *262:17 gpio_inp_dis[41] 11.839 
3 *262:17 gpio_oeb[41] 5.95464 
*END

*D_NET *263 0.00701854
*CONN
*P gpio_oeb[42] O
*P gpio_inp_dis[42] O
*P gpio_loopback_one[42] I
*CAP
1 gpio_oeb[42] 3.76732e-05
2 gpio_inp_dis[42] 0.00145521
3 gpio_loopback_one[42] 0.000245245
4 *263:9 0.00173813
5 gpio_analog_pol[42] gpio_inp_dis[42] 0
6 gpio_ib_mode_sel[42] gpio_oeb[42] 0
7 *125:9 gpio_inp_dis[42] 0.000321337
8 *125:9 *263:9 0.000635772
9 *125:11 gpio_inp_dis[42] 0.000321337
10 *125:13 gpio_inp_dis[42] 0.000931045
11 *125:15 gpio_inp_dis[42] 0.000274436
12 *125:17 gpio_inp_dis[42] 0.000321337
13 *125:19 gpio_inp_dis[42] 0.00022731
14 *125:21 gpio_inp_dis[42] 0.000500919
15 *125:25 gpio_inp_dis[42] 8.78685e-06
*RES
1 gpio_loopback_one[42] *263:9 5.07134 
2 *263:9 gpio_inp_dis[42] 10.5312 
3 *263:9 gpio_oeb[42] 4.07964 
*END

*D_NET *264 0.00627304
*CONN
*P gpio_oeb[43] O
*P gpio_inp_dis[43] O
*P gpio_loopback_one[43] I
*CAP
1 gpio_oeb[43] 0.000100661
2 gpio_inp_dis[43] 0.00142399
3 gpio_loopback_one[43] 0.000270634
4 *264:13 0.00179528
5 gpio_analog_pol[43] gpio_inp_dis[43] 0
6 *126:19 gpio_inp_dis[43] 0.000356018
7 *126:19 gpio_oeb[43] 0
8 *126:19 *264:13 0.000515907
9 *126:39 gpio_inp_dis[43] 0.000544456
10 *126:41 gpio_inp_dis[43] 0.000163337
11 *126:43 gpio_inp_dis[43] 0.00019056
12 *126:45 gpio_inp_dis[43] 0.00019056
13 *126:47 gpio_inp_dis[43] 0.00072164
*RES
1 gpio_loopback_one[43] *264:13 6.90152 
2 *264:13 gpio_inp_dis[43] 11.839 
3 *264:13 gpio_oeb[43] 5.95464 
*END

*D_NET *265 0.0321711
*CONN
*P gpio_out[10] O
*I *313:io_out[8] O *D user_proj_timer
*CAP
1 gpio_out[10] 0.00234743
2 *313:io_out[8] 0.0116615
3 *265:11 0.014009
4 gpio_dm1[10] gpio_out[10] 0.000266191
5 gpio_holdover[10] gpio_out[10] 1.55929e-05
6 gpio_slow_sel[10] gpio_out[10] 0.000274226
7 *90:41 gpio_out[10] 0.000127006
8 *90:45 gpio_out[10] 0.00117613
9 *90:47 gpio_out[10] 0.000249482
10 *90:51 gpio_out[10] 0.000276987
11 *132:9 *265:11 0.00104831
12 *135:23 gpio_out[10] 0.000470957
13 *145:21 *265:11 0.000248262
*RES
1 *313:io_out[8] *265:11 43.5496 
2 *265:11 gpio_out[10] 13.7477 
*END

*D_NET *266 0.0275372
*CONN
*P gpio_out[11] O
*I *313:io_out[9] O *D user_proj_timer
*CAP
1 gpio_out[11] 0.000603129
2 *313:io_out[9] 0.0118075
3 *266:13 0.0124106
4 gpio_analog_sel[11] *266:13 1.10785e-05
5 gpio_holdover[11] gpio_out[11] 2.14465e-05
6 gpio_slow_sel[11] *266:13 0.0011827
7 *91:19 *266:13 0.00098159
8 *91:21 *266:13 0.000259595
9 *91:23 *266:13 0.000259595
*RES
1 *313:io_out[9] *266:13 48.0515 
2 *266:13 gpio_out[11] 17.5721 
*END

*D_NET *267 0.0243125
*CONN
*P gpio_out[12] O
*I *313:io_out[10] O *D user_proj_timer
*CAP
1 gpio_out[12] 0.0103843
2 *313:io_out[10] 0.0103843
3 gpio_analog_pol[12] gpio_out[12] 4.7145e-05
4 gpio_holdover[12] gpio_out[12] 2.45075e-05
5 gpio_slow_sel[12] gpio_out[12] 0.00120816
6 *92:21 gpio_out[12] 0.000176959
7 *92:23 gpio_out[12] 0.000476658
8 *92:25 gpio_out[12] 0.0011787
9 *92:27 gpio_out[12] 0.000206401
10 *92:29 gpio_out[12] 0.000225295
*RES
1 *313:io_out[10] gpio_out[12] 43.4448 
*END

*D_NET *268 0.0211055
*CONN
*P gpio_out[2] O
*I *313:io_out[0] O *D user_proj_timer
*CAP
1 gpio_out[2] 0.0105445
2 *313:io_out[0] 0.0105445
3 gpio_dm2[2] gpio_out[2] 0
4 gpio_holdover[2] gpio_out[2] 1.65123e-05
*RES
1 *313:io_out[0] gpio_out[2] 41.9878 
*END

*D_NET *269 0.0254222
*CONN
*P gpio_out[3] O
*I *313:io_out[1] O *D user_proj_timer
*CAP
1 gpio_out[3] 0.0127008
2 *313:io_out[1] 0.0127008
3 gpio_holdover[3] gpio_out[3] 2.05378e-05
*RES
1 *313:io_out[1] gpio_out[3] 49.1725 
*END

*D_NET *270 0.029017
*CONN
*P gpio_out[4] O
*I *313:io_out[2] O *D user_proj_timer
*CAP
1 gpio_out[4] 0.00580955
2 *313:io_out[2] 0.00868566
3 *270:16 0.0144952
4 gpio_holdover[4] gpio_out[4] 2.66049e-05
*RES
1 *313:io_out[2] *270:16 37.9371 
2 *270:16 gpio_out[4] 18.1726 
*END

*D_NET *271 0.0345696
*CONN
*P gpio_out[5] O
*I *313:io_out[3] O *D user_proj_timer
*CAP
1 gpio_out[5] 0.00581317
2 *313:io_out[3] 0.0109544
3 *271:20 0.0167675
4 *271:20 *272:14 0.00101309
5 gpio_holdover[5] gpio_out[5] 2.14465e-05
6 *141:13 gpio_out[5] 0
7 *141:27 gpio_out[5] 0
*RES
1 *313:io_out[3] *271:20 45.3506 
2 *271:20 gpio_out[5] 18.1898 
*END

*D_NET *272 0.0377905
*CONN
*P gpio_out[6] O
*I *313:io_out[4] O *D user_proj_timer
*CAP
1 gpio_out[6] 0.00578965
2 *313:io_out[4] 0.0125883
3 *272:14 0.018378
4 gpio_dm2[6] gpio_out[6] 0
5 gpio_holdover[6] gpio_out[6] 2.14465e-05
6 *271:20 *272:14 0.00101309
*RES
1 *313:io_out[4] *272:14 48.2699 
2 *272:14 gpio_out[6] 21.5575 
*END

*D_NET *273 0.0440303
*CONN
*P gpio_out[7] O
*I *313:io_out[5] O *D user_proj_timer
*CAP
1 gpio_out[7] 0.00136181
2 *313:io_out[5] 0.00568511
3 *273:11 0.0138816
4 *273:7 0.0182049
5 gpio_out[7] gpio_out[8] 0.000221609
6 *273:11 gpio_out[8] 0.00178576
7 gpio_dm1[7] gpio_out[7] 0.00119937
8 gpio_holdover[7] gpio_out[7] 1.83579e-05
9 *143:9 gpio_out[7] 0.000460083
10 *143:11 gpio_out[7] 0.00121177
*RES
1 *313:io_out[5] *273:7 21.2496 
2 *273:7 *273:11 46.0224 
3 *273:11 gpio_out[7] 10.5234 
*END

*D_NET *274 0.0467832
*CONN
*P gpio_out[8] O
*I *313:io_out[6] O *D user_proj_timer
*CAP
1 gpio_out[8] 0.0107431
2 *313:io_out[6] 0.00575342
3 *274:7 0.0164965
4 gpio_out[8] *275:15 0.00153472
5 gpio_dm1[7] gpio_out[8] 0.00118873
6 gpio_dm1[8] gpio_out[8] 0.000240843
7 gpio_holdover[8] gpio_out[8] 2.10935e-05
8 gpio_out[7] gpio_out[8] 0.000221609
9 gpio_slow_sel[7] gpio_out[8] 0.00100786
10 gpio_slow_sel[8] gpio_out[8] 0.0011827
11 *130:21 gpio_out[8] 0.000548854
12 *130:27 gpio_out[8] 0.0002652
13 *130:31 gpio_out[8] 0.000375714
14 *131:43 gpio_out[8] 0.00121257
15 *131:57 gpio_out[8] 0.00010827
16 *131:63 gpio_out[8] 0.000285183
17 *143:9 gpio_out[8] 0.00254684
18 *143:11 gpio_out[8] 0.00122632
19 *144:11 gpio_out[8] 3.78827e-05
20 *273:11 gpio_out[8] 0.00178576
*RES
1 *313:io_out[6] *274:7 21.3938 
2 *274:7 gpio_out[8] 49.3329 
*END

*D_NET *275 0.0386374
*CONN
*P gpio_out[9] O
*I *313:io_out[7] O *D user_proj_timer
*CAP
1 gpio_out[9] 0.00296201
2 *313:io_out[7] 0.0121324
3 *275:15 0.0150945
4 gpio_holdover[9] gpio_out[9] 4.18853e-05
5 gpio_inp_dis[8] *275:15 7.87612e-05
6 gpio_out[8] *275:15 0.00153472
7 gpio_slow_sel[9] gpio_out[9] 0.000575008
8 *131:17 *275:15 0.000617016
9 *131:23 *275:15 0.000274226
10 *132:15 gpio_out[9] 0.000209181
11 *132:19 gpio_out[9] 0.000522208
12 *132:23 gpio_out[9] 0.000682659
13 *132:27 gpio_out[9] 0.000147884
14 *132:31 gpio_out[9] 0.000147884
15 *144:9 *275:15 0.00247857
16 *144:11 *275:15 0.00113844
*RES
1 *313:io_out[7] *275:15 47.8516 
2 *275:15 gpio_out[9] 16.3201 
*END
