*SPEF "ieee 1481-1999"
*DESIGN "openframe_project_wrapper"
*DATE "10:41:22 Thursday September 24, 2026"
*VENDOR "The OpenROAD Project"
*PROGRAM "OpenROAD"
*VERSION "dcf36133a369abc8f3c5e5738cd4d82e4903c0e0"
*DESIGN_FLOW "NAME_SCOPE LOCAL" "PIN_CAP NONE"
*DIVIDER /
*DELIMITER :
*BUS_DELIMITER []
*T_UNIT 1 NS
*C_UNIT 1 PF
*R_UNIT 1 OHM
*L_UNIT 1 HENRY

*NAME_MAP
*1 analog_io[0]
*2 analog_io[10]
*3 analog_io[11]
*4 analog_io[12]
*5 analog_io[13]
*6 analog_io[14]
*7 analog_io[15]
*8 analog_io[16]
*9 analog_io[17]
*10 analog_io[18]
*11 analog_io[19]
*12 analog_io[1]
*13 analog_io[20]
*14 analog_io[21]
*15 analog_io[22]
*16 analog_io[23]
*17 analog_io[24]
*18 analog_io[25]
*19 analog_io[26]
*20 analog_io[27]
*21 analog_io[28]
*22 analog_io[29]
*23 analog_io[2]
*24 analog_io[30]
*25 analog_io[31]
*26 analog_io[32]
*27 analog_io[33]
*28 analog_io[34]
*29 analog_io[35]
*30 analog_io[36]
*31 analog_io[37]
*32 analog_io[38]
*33 analog_io[39]
*34 analog_io[3]
*35 analog_io[40]
*36 analog_io[41]
*37 analog_io[42]
*38 analog_io[43]
*39 analog_io[4]
*40 analog_io[5]
*41 analog_io[6]
*42 analog_io[7]
*43 analog_io[8]
*44 analog_io[9]
*45 analog_noesd_io[0]
*46 analog_noesd_io[10]
*47 analog_noesd_io[11]
*48 analog_noesd_io[12]
*49 analog_noesd_io[13]
*50 analog_noesd_io[14]
*51 analog_noesd_io[15]
*52 analog_noesd_io[16]
*53 analog_noesd_io[17]
*54 analog_noesd_io[18]
*55 analog_noesd_io[19]
*56 analog_noesd_io[1]
*57 analog_noesd_io[20]
*58 analog_noesd_io[21]
*59 analog_noesd_io[22]
*60 analog_noesd_io[23]
*61 analog_noesd_io[24]
*62 analog_noesd_io[25]
*63 analog_noesd_io[26]
*64 analog_noesd_io[27]
*65 analog_noesd_io[28]
*66 analog_noesd_io[29]
*67 analog_noesd_io[2]
*68 analog_noesd_io[30]
*69 analog_noesd_io[31]
*70 analog_noesd_io[32]
*71 analog_noesd_io[33]
*72 analog_noesd_io[34]
*73 analog_noesd_io[35]
*74 analog_noesd_io[36]
*75 analog_noesd_io[37]
*76 analog_noesd_io[38]
*77 analog_noesd_io[39]
*78 analog_noesd_io[3]
*79 analog_noesd_io[40]
*80 analog_noesd_io[41]
*81 analog_noesd_io[42]
*82 analog_noesd_io[43]
*83 analog_noesd_io[4]
*84 analog_noesd_io[5]
*85 analog_noesd_io[6]
*86 analog_noesd_io[7]
*87 analog_noesd_io[8]
*88 analog_noesd_io[9]
*89 gpio_loopback_zero[0]
*90 gpio_loopback_zero[10]
*91 gpio_loopback_zero[11]
*92 gpio_loopback_zero[12]
*93 gpio_loopback_zero[13]
*94 gpio_loopback_zero[14]
*95 gpio_loopback_zero[15]
*96 gpio_loopback_zero[16]
*97 gpio_loopback_zero[17]
*98 gpio_loopback_zero[18]
*99 gpio_loopback_zero[19]
*100 gpio_loopback_zero[1]
*101 gpio_loopback_zero[20]
*102 gpio_loopback_zero[21]
*103 gpio_loopback_zero[22]
*104 gpio_loopback_zero[23]
*105 gpio_loopback_zero[24]
*106 gpio_loopback_zero[25]
*107 gpio_loopback_zero[26]
*108 gpio_loopback_zero[27]
*109 gpio_loopback_zero[28]
*110 gpio_loopback_zero[29]
*111 gpio_loopback_zero[2]
*112 gpio_loopback_zero[30]
*113 gpio_loopback_zero[31]
*114 gpio_loopback_zero[32]
*115 gpio_loopback_zero[33]
*116 gpio_loopback_zero[34]
*117 gpio_loopback_zero[35]
*118 gpio_loopback_zero[36]
*119 gpio_loopback_zero[37]
*120 gpio_loopback_zero[38]
*121 gpio_loopback_zero[39]
*122 gpio_loopback_zero[3]
*123 gpio_loopback_zero[40]
*124 gpio_loopback_zero[41]
*125 gpio_loopback_zero[42]
*126 gpio_loopback_zero[43]
*127 gpio_loopback_zero[4]
*128 gpio_loopback_zero[5]
*129 gpio_loopback_zero[6]
*130 gpio_loopback_zero[7]
*131 gpio_loopback_zero[8]
*132 gpio_loopback_zero[9]
*133 gpio_loopback_one[0]
*134 gpio_loopback_one[1]
*135 gpio_loopback_one[10]
*136 gpio_loopback_one[11]
*137 gpio_loopback_one[12]
*138 gpio_loopback_one[24]
*139 gpio_loopback_one[25]
*140 gpio_loopback_one[26]
*141 gpio_loopback_one[27]
*142 gpio_loopback_one[28]
*143 gpio_loopback_one[29]
*144 gpio_loopback_one[2]
*145 gpio_loopback_one[30]
*146 gpio_loopback_one[31]
*147 gpio_loopback_one[32]
*148 gpio_loopback_one[33]
*149 gpio_loopback_one[34]
*150 gpio_loopback_one[3]
*151 gpio_loopback_one[4]
*152 gpio_loopback_one[5]
*153 gpio_loopback_one[6]
*154 gpio_loopback_one[7]
*155 gpio_loopback_one[8]
*156 gpio_loopback_one[9]
*157 gpio_in[0]
*158 gpio_in[10]
*159 gpio_in[11]
*160 gpio_in[12]
*161 gpio_in[13]
*162 gpio_in[14]
*163 gpio_in[15]
*164 gpio_in[16]
*165 gpio_in[17]
*166 gpio_in[18]
*167 gpio_in[19]
*168 gpio_in[1]
*169 gpio_in[20]
*170 gpio_in[21]
*171 gpio_in[22]
*172 gpio_in[23]
*173 gpio_in[24]
*174 gpio_in[25]
*175 gpio_in[26]
*176 gpio_in[27]
*177 gpio_in[28]
*178 gpio_in[29]
*179 gpio_in[2]
*180 gpio_in[30]
*181 gpio_in[31]
*182 gpio_in[32]
*183 gpio_in[33]
*184 gpio_in[34]
*185 gpio_in[35]
*186 gpio_in[36]
*187 gpio_in[37]
*188 gpio_in[38]
*189 gpio_in[39]
*190 gpio_in[3]
*191 gpio_in[40]
*192 gpio_in[41]
*193 gpio_in[42]
*194 gpio_in[43]
*195 gpio_in[4]
*196 gpio_in[5]
*197 gpio_in[6]
*198 gpio_in[7]
*199 gpio_in[8]
*200 gpio_in[9]
*201 gpio_in_h[0]
*202 gpio_in_h[10]
*203 gpio_in_h[11]
*204 gpio_in_h[12]
*205 gpio_in_h[13]
*206 gpio_in_h[14]
*207 gpio_in_h[15]
*208 gpio_in_h[16]
*209 gpio_in_h[17]
*210 gpio_in_h[18]
*211 gpio_in_h[19]
*212 gpio_in_h[1]
*213 gpio_in_h[20]
*214 gpio_in_h[21]
*215 gpio_in_h[22]
*216 gpio_in_h[23]
*217 gpio_in_h[24]
*218 gpio_in_h[25]
*219 gpio_in_h[26]
*220 gpio_in_h[27]
*221 gpio_in_h[28]
*222 gpio_in_h[29]
*223 gpio_in_h[2]
*224 gpio_in_h[30]
*225 gpio_in_h[31]
*226 gpio_in_h[32]
*227 gpio_in_h[33]
*228 gpio_in_h[34]
*229 gpio_in_h[35]
*230 gpio_in_h[36]
*231 gpio_in_h[37]
*232 gpio_in_h[38]
*233 gpio_in_h[39]
*234 gpio_in_h[3]
*235 gpio_in_h[40]
*236 gpio_in_h[41]
*237 gpio_in_h[42]
*238 gpio_in_h[43]
*239 gpio_in_h[4]
*240 gpio_in_h[5]
*241 gpio_in_h[6]
*242 gpio_in_h[7]
*243 gpio_in_h[8]
*244 gpio_in_h[9]
*245 gpio_loopback_one[13]
*246 gpio_loopback_one[14]
*247 gpio_loopback_one[15]
*248 gpio_loopback_one[16]
*249 gpio_loopback_one[17]
*250 gpio_loopback_one[18]
*251 gpio_loopback_one[19]
*252 gpio_loopback_one[20]
*253 gpio_loopback_one[21]
*254 gpio_loopback_one[22]
*255 gpio_loopback_one[23]
*256 gpio_loopback_one[35]
*257 gpio_loopback_one[36]
*258 gpio_loopback_one[37]
*259 gpio_loopback_one[38]
*260 gpio_loopback_one[39]
*261 gpio_loopback_one[40]
*262 gpio_loopback_one[41]
*263 gpio_loopback_one[42]
*264 gpio_loopback_one[43]
*265 gpio_out[10]
*266 gpio_out[11]
*267 gpio_out[12]
*268 gpio_out[24]
*269 gpio_out[25]
*270 gpio_out[26]
*271 gpio_out[27]
*272 gpio_out[28]
*273 gpio_out[29]
*274 gpio_out[2]
*275 gpio_out[30]
*276 gpio_out[31]
*277 gpio_out[32]
*278 gpio_out[33]
*279 gpio_out[34]
*280 gpio_out[3]
*281 gpio_out[4]
*282 gpio_out[5]
*283 gpio_out[6]
*284 gpio_out[7]
*285 gpio_out[8]
*286 gpio_out[9]
*287 mask_rev[0]
*288 mask_rev[10]
*289 mask_rev[11]
*290 mask_rev[12]
*291 mask_rev[13]
*292 mask_rev[14]
*293 mask_rev[15]
*294 mask_rev[16]
*295 mask_rev[17]
*296 mask_rev[18]
*297 mask_rev[19]
*298 mask_rev[1]
*299 mask_rev[20]
*300 mask_rev[21]
*301 mask_rev[22]
*302 mask_rev[23]
*303 mask_rev[24]
*304 mask_rev[25]
*305 mask_rev[26]
*306 mask_rev[27]
*307 mask_rev[28]
*308 mask_rev[29]
*309 mask_rev[2]
*310 mask_rev[30]
*311 mask_rev[31]
*312 mask_rev[3]
*313 mask_rev[4]
*314 mask_rev[5]
*315 mask_rev[6]
*316 mask_rev[7]
*317 mask_rev[8]
*318 mask_rev[9]
*319 por_l
*320 porb_h
*321 porb_l
*322 resetb_h
*323 resetb_l
*324 mprj
*325 mprj2

*PORTS
analog_io[0] I
analog_io[10] I
analog_io[11] I
analog_io[12] I
analog_io[13] I
analog_io[14] I
analog_io[15] I
analog_io[16] I
analog_io[17] I
analog_io[18] I
analog_io[19] I
analog_io[1] I
analog_io[20] I
analog_io[21] I
analog_io[22] I
analog_io[23] I
analog_io[24] I
analog_io[25] I
analog_io[26] I
analog_io[27] I
analog_io[28] I
analog_io[29] I
analog_io[2] I
analog_io[30] I
analog_io[31] I
analog_io[32] I
analog_io[33] I
analog_io[34] I
analog_io[35] I
analog_io[36] I
analog_io[37] I
analog_io[38] I
analog_io[39] I
analog_io[3] I
analog_io[40] I
analog_io[41] I
analog_io[42] I
analog_io[43] I
analog_io[4] I
analog_io[5] I
analog_io[6] I
analog_io[7] I
analog_io[8] I
analog_io[9] I
analog_noesd_io[0] I
analog_noesd_io[10] I
analog_noesd_io[11] I
analog_noesd_io[12] I
analog_noesd_io[13] I
analog_noesd_io[14] I
analog_noesd_io[15] I
analog_noesd_io[16] I
analog_noesd_io[17] I
analog_noesd_io[18] I
analog_noesd_io[19] I
analog_noesd_io[1] I
analog_noesd_io[20] I
analog_noesd_io[21] I
analog_noesd_io[22] I
analog_noesd_io[23] I
analog_noesd_io[24] I
analog_noesd_io[25] I
analog_noesd_io[26] I
analog_noesd_io[27] I
analog_noesd_io[28] I
analog_noesd_io[29] I
analog_noesd_io[2] I
analog_noesd_io[30] I
analog_noesd_io[31] I
analog_noesd_io[32] I
analog_noesd_io[33] I
analog_noesd_io[34] I
analog_noesd_io[35] I
analog_noesd_io[36] I
analog_noesd_io[37] I
analog_noesd_io[38] I
analog_noesd_io[39] I
analog_noesd_io[3] I
analog_noesd_io[40] I
analog_noesd_io[41] I
analog_noesd_io[42] I
analog_noesd_io[43] I
analog_noesd_io[4] I
analog_noesd_io[5] I
analog_noesd_io[6] I
analog_noesd_io[7] I
analog_noesd_io[8] I
analog_noesd_io[9] I
gpio_analog_en[0] O
gpio_analog_en[10] O
gpio_analog_en[11] O
gpio_analog_en[12] O
gpio_analog_en[13] O
gpio_analog_en[14] O
gpio_analog_en[15] O
gpio_analog_en[16] O
gpio_analog_en[17] O
gpio_analog_en[18] O
gpio_analog_en[19] O
gpio_analog_en[1] O
gpio_analog_en[20] O
gpio_analog_en[21] O
gpio_analog_en[22] O
gpio_analog_en[23] O
gpio_analog_en[24] O
gpio_analog_en[25] O
gpio_analog_en[26] O
gpio_analog_en[27] O
gpio_analog_en[28] O
gpio_analog_en[29] O
gpio_analog_en[2] O
gpio_analog_en[30] O
gpio_analog_en[31] O
gpio_analog_en[32] O
gpio_analog_en[33] O
gpio_analog_en[34] O
gpio_analog_en[35] O
gpio_analog_en[36] O
gpio_analog_en[37] O
gpio_analog_en[38] O
gpio_analog_en[39] O
gpio_analog_en[3] O
gpio_analog_en[40] O
gpio_analog_en[41] O
gpio_analog_en[42] O
gpio_analog_en[43] O
gpio_analog_en[4] O
gpio_analog_en[5] O
gpio_analog_en[6] O
gpio_analog_en[7] O
gpio_analog_en[8] O
gpio_analog_en[9] O
gpio_analog_pol[0] O
gpio_analog_pol[10] O
gpio_analog_pol[11] O
gpio_analog_pol[12] O
gpio_analog_pol[13] O
gpio_analog_pol[14] O
gpio_analog_pol[15] O
gpio_analog_pol[16] O
gpio_analog_pol[17] O
gpio_analog_pol[18] O
gpio_analog_pol[19] O
gpio_analog_pol[1] O
gpio_analog_pol[20] O
gpio_analog_pol[21] O
gpio_analog_pol[22] O
gpio_analog_pol[23] O
gpio_analog_pol[24] O
gpio_analog_pol[25] O
gpio_analog_pol[26] O
gpio_analog_pol[27] O
gpio_analog_pol[28] O
gpio_analog_pol[29] O
gpio_analog_pol[2] O
gpio_analog_pol[30] O
gpio_analog_pol[31] O
gpio_analog_pol[32] O
gpio_analog_pol[33] O
gpio_analog_pol[34] O
gpio_analog_pol[35] O
gpio_analog_pol[36] O
gpio_analog_pol[37] O
gpio_analog_pol[38] O
gpio_analog_pol[39] O
gpio_analog_pol[3] O
gpio_analog_pol[40] O
gpio_analog_pol[41] O
gpio_analog_pol[42] O
gpio_analog_pol[43] O
gpio_analog_pol[4] O
gpio_analog_pol[5] O
gpio_analog_pol[6] O
gpio_analog_pol[7] O
gpio_analog_pol[8] O
gpio_analog_pol[9] O
gpio_analog_sel[0] O
gpio_analog_sel[10] O
gpio_analog_sel[11] O
gpio_analog_sel[12] O
gpio_analog_sel[13] O
gpio_analog_sel[14] O
gpio_analog_sel[15] O
gpio_analog_sel[16] O
gpio_analog_sel[17] O
gpio_analog_sel[18] O
gpio_analog_sel[19] O
gpio_analog_sel[1] O
gpio_analog_sel[20] O
gpio_analog_sel[21] O
gpio_analog_sel[22] O
gpio_analog_sel[23] O
gpio_analog_sel[24] O
gpio_analog_sel[25] O
gpio_analog_sel[26] O
gpio_analog_sel[27] O
gpio_analog_sel[28] O
gpio_analog_sel[29] O
gpio_analog_sel[2] O
gpio_analog_sel[30] O
gpio_analog_sel[31] O
gpio_analog_sel[32] O
gpio_analog_sel[33] O
gpio_analog_sel[34] O
gpio_analog_sel[35] O
gpio_analog_sel[36] O
gpio_analog_sel[37] O
gpio_analog_sel[38] O
gpio_analog_sel[39] O
gpio_analog_sel[3] O
gpio_analog_sel[40] O
gpio_analog_sel[41] O
gpio_analog_sel[42] O
gpio_analog_sel[43] O
gpio_analog_sel[4] O
gpio_analog_sel[5] O
gpio_analog_sel[6] O
gpio_analog_sel[7] O
gpio_analog_sel[8] O
gpio_analog_sel[9] O
gpio_dm0[0] O
gpio_dm0[10] O
gpio_dm0[11] O
gpio_dm0[12] O
gpio_dm0[13] O
gpio_dm0[14] O
gpio_dm0[15] O
gpio_dm0[16] O
gpio_dm0[17] O
gpio_dm0[18] O
gpio_dm0[19] O
gpio_dm0[1] O
gpio_dm0[20] O
gpio_dm0[21] O
gpio_dm0[22] O
gpio_dm0[23] O
gpio_dm0[24] O
gpio_dm0[25] O
gpio_dm0[26] O
gpio_dm0[27] O
gpio_dm0[28] O
gpio_dm0[29] O
gpio_dm0[2] O
gpio_dm0[30] O
gpio_dm0[31] O
gpio_dm0[32] O
gpio_dm0[33] O
gpio_dm0[34] O
gpio_dm0[35] O
gpio_dm0[36] O
gpio_dm0[37] O
gpio_dm0[38] O
gpio_dm0[39] O
gpio_dm0[3] O
gpio_dm0[40] O
gpio_dm0[41] O
gpio_dm0[42] O
gpio_dm0[43] O
gpio_dm0[4] O
gpio_dm0[5] O
gpio_dm0[6] O
gpio_dm0[7] O
gpio_dm0[8] O
gpio_dm0[9] O
gpio_dm1[0] O
gpio_dm1[10] O
gpio_dm1[11] O
gpio_dm1[12] O
gpio_dm1[13] O
gpio_dm1[14] O
gpio_dm1[15] O
gpio_dm1[16] O
gpio_dm1[17] O
gpio_dm1[18] O
gpio_dm1[19] O
gpio_dm1[1] O
gpio_dm1[20] O
gpio_dm1[21] O
gpio_dm1[22] O
gpio_dm1[23] O
gpio_dm1[24] O
gpio_dm1[25] O
gpio_dm1[26] O
gpio_dm1[27] O
gpio_dm1[28] O
gpio_dm1[29] O
gpio_dm1[2] O
gpio_dm1[30] O
gpio_dm1[31] O
gpio_dm1[32] O
gpio_dm1[33] O
gpio_dm1[34] O
gpio_dm1[35] O
gpio_dm1[36] O
gpio_dm1[37] O
gpio_dm1[38] O
gpio_dm1[39] O
gpio_dm1[3] O
gpio_dm1[40] O
gpio_dm1[41] O
gpio_dm1[42] O
gpio_dm1[43] O
gpio_dm1[4] O
gpio_dm1[5] O
gpio_dm1[6] O
gpio_dm1[7] O
gpio_dm1[8] O
gpio_dm1[9] O
gpio_dm2[0] O
gpio_dm2[10] O
gpio_dm2[11] O
gpio_dm2[12] O
gpio_dm2[13] O
gpio_dm2[14] O
gpio_dm2[15] O
gpio_dm2[16] O
gpio_dm2[17] O
gpio_dm2[18] O
gpio_dm2[19] O
gpio_dm2[1] O
gpio_dm2[20] O
gpio_dm2[21] O
gpio_dm2[22] O
gpio_dm2[23] O
gpio_dm2[24] O
gpio_dm2[25] O
gpio_dm2[26] O
gpio_dm2[27] O
gpio_dm2[28] O
gpio_dm2[29] O
gpio_dm2[2] O
gpio_dm2[30] O
gpio_dm2[31] O
gpio_dm2[32] O
gpio_dm2[33] O
gpio_dm2[34] O
gpio_dm2[35] O
gpio_dm2[36] O
gpio_dm2[37] O
gpio_dm2[38] O
gpio_dm2[39] O
gpio_dm2[3] O
gpio_dm2[40] O
gpio_dm2[41] O
gpio_dm2[42] O
gpio_dm2[43] O
gpio_dm2[4] O
gpio_dm2[5] O
gpio_dm2[6] O
gpio_dm2[7] O
gpio_dm2[8] O
gpio_dm2[9] O
gpio_holdover[0] O
gpio_holdover[10] O
gpio_holdover[11] O
gpio_holdover[12] O
gpio_holdover[13] O
gpio_holdover[14] O
gpio_holdover[15] O
gpio_holdover[16] O
gpio_holdover[17] O
gpio_holdover[18] O
gpio_holdover[19] O
gpio_holdover[1] O
gpio_holdover[20] O
gpio_holdover[21] O
gpio_holdover[22] O
gpio_holdover[23] O
gpio_holdover[24] O
gpio_holdover[25] O
gpio_holdover[26] O
gpio_holdover[27] O
gpio_holdover[28] O
gpio_holdover[29] O
gpio_holdover[2] O
gpio_holdover[30] O
gpio_holdover[31] O
gpio_holdover[32] O
gpio_holdover[33] O
gpio_holdover[34] O
gpio_holdover[35] O
gpio_holdover[36] O
gpio_holdover[37] O
gpio_holdover[38] O
gpio_holdover[39] O
gpio_holdover[3] O
gpio_holdover[40] O
gpio_holdover[41] O
gpio_holdover[42] O
gpio_holdover[43] O
gpio_holdover[4] O
gpio_holdover[5] O
gpio_holdover[6] O
gpio_holdover[7] O
gpio_holdover[8] O
gpio_holdover[9] O
gpio_ib_mode_sel[0] O
gpio_ib_mode_sel[10] O
gpio_ib_mode_sel[11] O
gpio_ib_mode_sel[12] O
gpio_ib_mode_sel[13] O
gpio_ib_mode_sel[14] O
gpio_ib_mode_sel[15] O
gpio_ib_mode_sel[16] O
gpio_ib_mode_sel[17] O
gpio_ib_mode_sel[18] O
gpio_ib_mode_sel[19] O
gpio_ib_mode_sel[1] O
gpio_ib_mode_sel[20] O
gpio_ib_mode_sel[21] O
gpio_ib_mode_sel[22] O
gpio_ib_mode_sel[23] O
gpio_ib_mode_sel[24] O
gpio_ib_mode_sel[25] O
gpio_ib_mode_sel[26] O
gpio_ib_mode_sel[27] O
gpio_ib_mode_sel[28] O
gpio_ib_mode_sel[29] O
gpio_ib_mode_sel[2] O
gpio_ib_mode_sel[30] O
gpio_ib_mode_sel[31] O
gpio_ib_mode_sel[32] O
gpio_ib_mode_sel[33] O
gpio_ib_mode_sel[34] O
gpio_ib_mode_sel[35] O
gpio_ib_mode_sel[36] O
gpio_ib_mode_sel[37] O
gpio_ib_mode_sel[38] O
gpio_ib_mode_sel[39] O
gpio_ib_mode_sel[3] O
gpio_ib_mode_sel[40] O
gpio_ib_mode_sel[41] O
gpio_ib_mode_sel[42] O
gpio_ib_mode_sel[43] O
gpio_ib_mode_sel[4] O
gpio_ib_mode_sel[5] O
gpio_ib_mode_sel[6] O
gpio_ib_mode_sel[7] O
gpio_ib_mode_sel[8] O
gpio_ib_mode_sel[9] O
gpio_in[0] I
gpio_in[10] I
gpio_in[11] I
gpio_in[12] I
gpio_in[13] I
gpio_in[14] I
gpio_in[15] I
gpio_in[16] I
gpio_in[17] I
gpio_in[18] I
gpio_in[19] I
gpio_in[1] I
gpio_in[20] I
gpio_in[21] I
gpio_in[22] I
gpio_in[23] I
gpio_in[24] I
gpio_in[25] I
gpio_in[26] I
gpio_in[27] I
gpio_in[28] I
gpio_in[29] I
gpio_in[2] I
gpio_in[30] I
gpio_in[31] I
gpio_in[32] I
gpio_in[33] I
gpio_in[34] I
gpio_in[35] I
gpio_in[36] I
gpio_in[37] I
gpio_in[38] I
gpio_in[39] I
gpio_in[3] I
gpio_in[40] I
gpio_in[41] I
gpio_in[42] I
gpio_in[43] I
gpio_in[4] I
gpio_in[5] I
gpio_in[6] I
gpio_in[7] I
gpio_in[8] I
gpio_in[9] I
gpio_in_h[0] I
gpio_in_h[10] I
gpio_in_h[11] I
gpio_in_h[12] I
gpio_in_h[13] I
gpio_in_h[14] I
gpio_in_h[15] I
gpio_in_h[16] I
gpio_in_h[17] I
gpio_in_h[18] I
gpio_in_h[19] I
gpio_in_h[1] I
gpio_in_h[20] I
gpio_in_h[21] I
gpio_in_h[22] I
gpio_in_h[23] I
gpio_in_h[24] I
gpio_in_h[25] I
gpio_in_h[26] I
gpio_in_h[27] I
gpio_in_h[28] I
gpio_in_h[29] I
gpio_in_h[2] I
gpio_in_h[30] I
gpio_in_h[31] I
gpio_in_h[32] I
gpio_in_h[33] I
gpio_in_h[34] I
gpio_in_h[35] I
gpio_in_h[36] I
gpio_in_h[37] I
gpio_in_h[38] I
gpio_in_h[39] I
gpio_in_h[3] I
gpio_in_h[40] I
gpio_in_h[41] I
gpio_in_h[42] I
gpio_in_h[43] I
gpio_in_h[4] I
gpio_in_h[5] I
gpio_in_h[6] I
gpio_in_h[7] I
gpio_in_h[8] I
gpio_in_h[9] I
gpio_inp_dis[0] O
gpio_inp_dis[10] O
gpio_inp_dis[11] O
gpio_inp_dis[12] O
gpio_inp_dis[13] O
gpio_inp_dis[14] O
gpio_inp_dis[15] O
gpio_inp_dis[16] O
gpio_inp_dis[17] O
gpio_inp_dis[18] O
gpio_inp_dis[19] O
gpio_inp_dis[1] O
gpio_inp_dis[20] O
gpio_inp_dis[21] O
gpio_inp_dis[22] O
gpio_inp_dis[23] O
gpio_inp_dis[24] O
gpio_inp_dis[25] O
gpio_inp_dis[26] O
gpio_inp_dis[27] O
gpio_inp_dis[28] O
gpio_inp_dis[29] O
gpio_inp_dis[2] O
gpio_inp_dis[30] O
gpio_inp_dis[31] O
gpio_inp_dis[32] O
gpio_inp_dis[33] O
gpio_inp_dis[34] O
gpio_inp_dis[35] O
gpio_inp_dis[36] O
gpio_inp_dis[37] O
gpio_inp_dis[38] O
gpio_inp_dis[39] O
gpio_inp_dis[3] O
gpio_inp_dis[40] O
gpio_inp_dis[41] O
gpio_inp_dis[42] O
gpio_inp_dis[43] O
gpio_inp_dis[4] O
gpio_inp_dis[5] O
gpio_inp_dis[6] O
gpio_inp_dis[7] O
gpio_inp_dis[8] O
gpio_inp_dis[9] O
gpio_loopback_one[0] I
gpio_loopback_one[10] I
gpio_loopback_one[11] I
gpio_loopback_one[12] I
gpio_loopback_one[13] I
gpio_loopback_one[14] I
gpio_loopback_one[15] I
gpio_loopback_one[16] I
gpio_loopback_one[17] I
gpio_loopback_one[18] I
gpio_loopback_one[19] I
gpio_loopback_one[1] I
gpio_loopback_one[20] I
gpio_loopback_one[21] I
gpio_loopback_one[22] I
gpio_loopback_one[23] I
gpio_loopback_one[24] I
gpio_loopback_one[25] I
gpio_loopback_one[26] I
gpio_loopback_one[27] I
gpio_loopback_one[28] I
gpio_loopback_one[29] I
gpio_loopback_one[2] I
gpio_loopback_one[30] I
gpio_loopback_one[31] I
gpio_loopback_one[32] I
gpio_loopback_one[33] I
gpio_loopback_one[34] I
gpio_loopback_one[35] I
gpio_loopback_one[36] I
gpio_loopback_one[37] I
gpio_loopback_one[38] I
gpio_loopback_one[39] I
gpio_loopback_one[3] I
gpio_loopback_one[40] I
gpio_loopback_one[41] I
gpio_loopback_one[42] I
gpio_loopback_one[43] I
gpio_loopback_one[4] I
gpio_loopback_one[5] I
gpio_loopback_one[6] I
gpio_loopback_one[7] I
gpio_loopback_one[8] I
gpio_loopback_one[9] I
gpio_loopback_zero[0] I
gpio_loopback_zero[10] I
gpio_loopback_zero[11] I
gpio_loopback_zero[12] I
gpio_loopback_zero[13] I
gpio_loopback_zero[14] I
gpio_loopback_zero[15] I
gpio_loopback_zero[16] I
gpio_loopback_zero[17] I
gpio_loopback_zero[18] I
gpio_loopback_zero[19] I
gpio_loopback_zero[1] I
gpio_loopback_zero[20] I
gpio_loopback_zero[21] I
gpio_loopback_zero[22] I
gpio_loopback_zero[23] I
gpio_loopback_zero[24] I
gpio_loopback_zero[25] I
gpio_loopback_zero[26] I
gpio_loopback_zero[27] I
gpio_loopback_zero[28] I
gpio_loopback_zero[29] I
gpio_loopback_zero[2] I
gpio_loopback_zero[30] I
gpio_loopback_zero[31] I
gpio_loopback_zero[32] I
gpio_loopback_zero[33] I
gpio_loopback_zero[34] I
gpio_loopback_zero[35] I
gpio_loopback_zero[36] I
gpio_loopback_zero[37] I
gpio_loopback_zero[38] I
gpio_loopback_zero[39] I
gpio_loopback_zero[3] I
gpio_loopback_zero[40] I
gpio_loopback_zero[41] I
gpio_loopback_zero[42] I
gpio_loopback_zero[43] I
gpio_loopback_zero[4] I
gpio_loopback_zero[5] I
gpio_loopback_zero[6] I
gpio_loopback_zero[7] I
gpio_loopback_zero[8] I
gpio_loopback_zero[9] I
gpio_oeb[0] O
gpio_oeb[10] O
gpio_oeb[11] O
gpio_oeb[12] O
gpio_oeb[13] O
gpio_oeb[14] O
gpio_oeb[15] O
gpio_oeb[16] O
gpio_oeb[17] O
gpio_oeb[18] O
gpio_oeb[19] O
gpio_oeb[1] O
gpio_oeb[20] O
gpio_oeb[21] O
gpio_oeb[22] O
gpio_oeb[23] O
gpio_oeb[24] O
gpio_oeb[25] O
gpio_oeb[26] O
gpio_oeb[27] O
gpio_oeb[28] O
gpio_oeb[29] O
gpio_oeb[2] O
gpio_oeb[30] O
gpio_oeb[31] O
gpio_oeb[32] O
gpio_oeb[33] O
gpio_oeb[34] O
gpio_oeb[35] O
gpio_oeb[36] O
gpio_oeb[37] O
gpio_oeb[38] O
gpio_oeb[39] O
gpio_oeb[3] O
gpio_oeb[40] O
gpio_oeb[41] O
gpio_oeb[42] O
gpio_oeb[43] O
gpio_oeb[4] O
gpio_oeb[5] O
gpio_oeb[6] O
gpio_oeb[7] O
gpio_oeb[8] O
gpio_oeb[9] O
gpio_out[0] O
gpio_out[10] O
gpio_out[11] O
gpio_out[12] O
gpio_out[13] O
gpio_out[14] O
gpio_out[15] O
gpio_out[16] O
gpio_out[17] O
gpio_out[18] O
gpio_out[19] O
gpio_out[1] O
gpio_out[20] O
gpio_out[21] O
gpio_out[22] O
gpio_out[23] O
gpio_out[24] O
gpio_out[25] O
gpio_out[26] O
gpio_out[27] O
gpio_out[28] O
gpio_out[29] O
gpio_out[2] O
gpio_out[30] O
gpio_out[31] O
gpio_out[32] O
gpio_out[33] O
gpio_out[34] O
gpio_out[35] O
gpio_out[36] O
gpio_out[37] O
gpio_out[38] O
gpio_out[39] O
gpio_out[3] O
gpio_out[40] O
gpio_out[41] O
gpio_out[42] O
gpio_out[43] O
gpio_out[4] O
gpio_out[5] O
gpio_out[6] O
gpio_out[7] O
gpio_out[8] O
gpio_out[9] O
gpio_slow_sel[0] O
gpio_slow_sel[10] O
gpio_slow_sel[11] O
gpio_slow_sel[12] O
gpio_slow_sel[13] O
gpio_slow_sel[14] O
gpio_slow_sel[15] O
gpio_slow_sel[16] O
gpio_slow_sel[17] O
gpio_slow_sel[18] O
gpio_slow_sel[19] O
gpio_slow_sel[1] O
gpio_slow_sel[20] O
gpio_slow_sel[21] O
gpio_slow_sel[22] O
gpio_slow_sel[23] O
gpio_slow_sel[24] O
gpio_slow_sel[25] O
gpio_slow_sel[26] O
gpio_slow_sel[27] O
gpio_slow_sel[28] O
gpio_slow_sel[29] O
gpio_slow_sel[2] O
gpio_slow_sel[30] O
gpio_slow_sel[31] O
gpio_slow_sel[32] O
gpio_slow_sel[33] O
gpio_slow_sel[34] O
gpio_slow_sel[35] O
gpio_slow_sel[36] O
gpio_slow_sel[37] O
gpio_slow_sel[38] O
gpio_slow_sel[39] O
gpio_slow_sel[3] O
gpio_slow_sel[40] O
gpio_slow_sel[41] O
gpio_slow_sel[42] O
gpio_slow_sel[43] O
gpio_slow_sel[4] O
gpio_slow_sel[5] O
gpio_slow_sel[6] O
gpio_slow_sel[7] O
gpio_slow_sel[8] O
gpio_slow_sel[9] O
gpio_vtrip_sel[0] O
gpio_vtrip_sel[10] O
gpio_vtrip_sel[11] O
gpio_vtrip_sel[12] O
gpio_vtrip_sel[13] O
gpio_vtrip_sel[14] O
gpio_vtrip_sel[15] O
gpio_vtrip_sel[16] O
gpio_vtrip_sel[17] O
gpio_vtrip_sel[18] O
gpio_vtrip_sel[19] O
gpio_vtrip_sel[1] O
gpio_vtrip_sel[20] O
gpio_vtrip_sel[21] O
gpio_vtrip_sel[22] O
gpio_vtrip_sel[23] O
gpio_vtrip_sel[24] O
gpio_vtrip_sel[25] O
gpio_vtrip_sel[26] O
gpio_vtrip_sel[27] O
gpio_vtrip_sel[28] O
gpio_vtrip_sel[29] O
gpio_vtrip_sel[2] O
gpio_vtrip_sel[30] O
gpio_vtrip_sel[31] O
gpio_vtrip_sel[32] O
gpio_vtrip_sel[33] O
gpio_vtrip_sel[34] O
gpio_vtrip_sel[35] O
gpio_vtrip_sel[36] O
gpio_vtrip_sel[37] O
gpio_vtrip_sel[38] O
gpio_vtrip_sel[39] O
gpio_vtrip_sel[3] O
gpio_vtrip_sel[40] O
gpio_vtrip_sel[41] O
gpio_vtrip_sel[42] O
gpio_vtrip_sel[43] O
gpio_vtrip_sel[4] O
gpio_vtrip_sel[5] O
gpio_vtrip_sel[6] O
gpio_vtrip_sel[7] O
gpio_vtrip_sel[8] O
gpio_vtrip_sel[9] O
mask_rev[0] I
mask_rev[10] I
mask_rev[11] I
mask_rev[12] I
mask_rev[13] I
mask_rev[14] I
mask_rev[15] I
mask_rev[16] I
mask_rev[17] I
mask_rev[18] I
mask_rev[19] I
mask_rev[1] I
mask_rev[20] I
mask_rev[21] I
mask_rev[22] I
mask_rev[23] I
mask_rev[24] I
mask_rev[25] I
mask_rev[26] I
mask_rev[27] I
mask_rev[28] I
mask_rev[29] I
mask_rev[2] I
mask_rev[30] I
mask_rev[31] I
mask_rev[3] I
mask_rev[4] I
mask_rev[5] I
mask_rev[6] I
mask_rev[7] I
mask_rev[8] I
mask_rev[9] I
por_l I
porb_h I
porb_l I
resetb_h I
resetb_l I

*D_NET *89 0.0128561
*CONN
*P gpio_ib_mode_sel[0] O
*P gpio_out[0] O
*P gpio_holdover[0] O
*P gpio_dm2[0] O
*P gpio_analog_sel[0] O
*P gpio_inp_dis[0] O
*P gpio_analog_pol[0] O
*P gpio_analog_en[0] O
*P gpio_dm1[0] O
*P gpio_slow_sel[0] O
*P gpio_vtrip_sel[0] O
*P gpio_loopback_zero[0] I
*CAP
1 gpio_ib_mode_sel[0] 2.74644e-05
2 gpio_out[0] 4.33865e-05
3 gpio_holdover[0] 2.56828e-05
4 gpio_dm2[0] 3.44079e-05
5 gpio_analog_sel[0] 4.95062e-05
6 gpio_inp_dis[0] 7.98802e-05
7 gpio_analog_pol[0] 5.32461e-05
8 gpio_analog_en[0] 5.08031e-05
9 gpio_dm1[0] 0.000107431
10 gpio_slow_sel[0] 0.000607999
11 gpio_vtrip_sel[0] 4.46184e-05
12 gpio_loopback_zero[0] 0.00165523
13 *89:55 0.00103577
14 *89:53 0.000755515
15 *89:51 0.000658227
16 *89:49 0.000918445
17 *89:43 0.000841931
18 *89:39 0.000383352
19 *89:37 0.000346073
20 *89:35 0.000632741
21 *89:23 0.00070729
22 *89:13 0.00190193
23 gpio_analog_en[0] gpio_dm0[0] 2.07427e-05
24 gpio_analog_pol[0] gpio_dm0[0] 2.07427e-05
25 gpio_ib_mode_sel[0] gpio_oeb[0] 1.89979e-05
26 gpio_ib_mode_sel[0] *133:13 4.96584e-06
27 gpio_inp_dis[0] gpio_dm0[0] 1.4123e-05
28 *89:13 gpio_dm0[0] 0.000208992
29 *89:13 gpio_oeb[0] 2.63406e-05
30 *89:13 *133:13 0.000363856
31 *89:23 gpio_dm0[0] 0.000107127
32 *89:35 gpio_dm0[0] 0.000277518
33 *89:49 gpio_dm0[0] 0.000831712
*RES
1 gpio_loopback_zero[0] *89:13 21.9696 
2 *89:13 *89:23 1.22453 
3 *89:23 gpio_vtrip_sel[0] 0.199733 
4 *89:23 *89:35 17.6736 
5 *89:35 *89:37 3.00357 
6 *89:37 *89:39 3.48 
7 *89:39 *89:43 11.48 
8 *89:43 *89:49 10.6451 
9 *89:49 *89:51 0.5712 
10 *89:51 *89:53 1.25813 
11 *89:53 *89:55 1.17227 
12 *89:55 gpio_slow_sel[0] 10.1448 
13 *89:55 gpio_dm1[0] 8.37147 
14 *89:53 gpio_analog_en[0] 8.37147 
15 *89:51 gpio_analog_pol[0] 8.37147 
16 *89:49 gpio_inp_dis[0] 8.37147 
17 *89:43 gpio_analog_sel[0] 0.1568 
18 *89:39 gpio_dm2[0] 8.1568 
19 *89:37 gpio_holdover[0] 8.1568 
20 *89:35 gpio_out[0] 8.1568 
21 *89:13 gpio_ib_mode_sel[0] 0.199733 
*END

*D_NET *90 0.01287
*CONN
*P gpio_oeb[10] O
*P gpio_ib_mode_sel[10] O
*P gpio_vtrip_sel[10] O
*P gpio_holdover[10] O
*P gpio_analog_sel[10] O
*P gpio_analog_pol[10] O
*P gpio_dm0[10] O
*P gpio_slow_sel[10] O
*P gpio_analog_en[10] O
*P gpio_loopback_zero[10] I
*CAP
1 gpio_oeb[10] 2.79141e-05
2 gpio_ib_mode_sel[10] 1.0201e-05
3 gpio_vtrip_sel[10] 4.95062e-05
4 gpio_holdover[10] 3.03765e-05
5 gpio_analog_sel[10] 7.99758e-05
6 gpio_analog_pol[10] 5.8248e-05
7 gpio_dm0[10] 5.19145e-05
8 gpio_slow_sel[10] 0.000791422
9 gpio_analog_en[10] 7.07446e-05
10 gpio_loopback_zero[10] 0.00108353
11 *90:51 0.000919098
12 *90:47 0.000145403
13 *90:45 0.000528717
14 *90:41 0.000912814
15 *90:31 0.00102133
16 *90:27 0.000816002
17 *90:23 0.000393697
18 *90:13 0.00132047
19 gpio_analog_en[10] gpio_dm1[10] 0
20 gpio_analog_pol[10] gpio_inp_dis[10] 1.5186e-05
21 gpio_analog_sel[10] gpio_dm2[10] 1.02521e-05
22 gpio_holdover[10] gpio_out[10] 1.5186e-05
23 gpio_slow_sel[10] gpio_dm1[10] 0
24 gpio_slow_sel[10] gpio_out[10] 0.000207907
25 *90:13 *135:23 0.000550537
26 *90:31 *135:23 0.000277518
27 *90:41 gpio_dm2[10] 1.16525e-05
28 *90:41 gpio_out[10] 0.000137351
29 *90:41 *135:23 0.000286442
30 *90:45 gpio_dm1[10] 0.00027289
31 *90:45 gpio_out[10] 0.00124585
32 *90:45 *135:23 0
33 *90:45 *135:29 0.000393165
34 *90:47 gpio_dm1[10] 0.000288894
35 *90:47 gpio_out[10] 0.000264272
36 *90:51 gpio_dm1[10] 0.000288154
37 *90:51 gpio_out[10] 0.000293408
*RES
1 gpio_loopback_zero[10] *90:13 20.2915 
2 *90:13 *90:23 1.13867 
3 *90:23 *90:27 11.48 
4 *90:27 *90:31 20.5321 
5 *90:31 *90:41 9.68373 
6 *90:41 *90:45 2.98853 
7 *90:45 *90:47 0.657067 
8 *90:47 *90:51 8.66733 
9 *90:51 gpio_analog_en[10] 0.266 
10 *90:51 gpio_slow_sel[10] 32.0659 
11 *90:47 gpio_dm0[10] 8.25573 
12 *90:45 gpio_analog_pol[10] 8.25573 
13 *90:41 gpio_analog_sel[10] 8.1568 
14 *90:31 gpio_holdover[10] 0.1568 
15 *90:27 gpio_vtrip_sel[10] 8.1568 
16 *90:23 gpio_ib_mode_sel[10] 0.1568 
17 *90:13 gpio_oeb[10] 0.1568 
*END

*D_NET *91 0.0101967
*CONN
*P gpio_oeb[11] O
*P gpio_ib_mode_sel[11] O
*P gpio_vtrip_sel[11] O
*P gpio_holdover[11] O
*P gpio_analog_sel[11] O
*P gpio_analog_pol[11] O
*P gpio_dm0[11] O
*P gpio_analog_en[11] O
*P gpio_slow_sel[11] O
*P gpio_loopback_zero[11] I
*CAP
1 gpio_oeb[11] 3.24618e-05
2 gpio_ib_mode_sel[11] 1.80579e-05
3 gpio_vtrip_sel[11] 3.8393e-05
4 gpio_holdover[11] 3.5202e-05
5 gpio_analog_sel[11] 3.89629e-05
6 gpio_analog_pol[11] 2.67582e-05
7 gpio_dm0[11] 1.80579e-05
8 gpio_analog_en[11] 3.8393e-05
9 gpio_slow_sel[11] 0.00077654
10 gpio_loopback_zero[11] 0.000972381
11 *91:37 0.000989405
12 *91:35 0.000367002
13 *91:31 0.00084654
14 *91:17 0.00102453
15 *91:15 0.00095612
16 *91:13 0.000793529
17 *91:11 0.000367002
18 *91:9 0.00117932
19 gpio_analog_en[11] gpio_dm1[11] 0
20 gpio_analog_pol[11] gpio_inp_dis[11] 1.83467e-05
21 gpio_analog_sel[11] gpio_dm2[11] 1.78301e-05
22 gpio_holdover[11] gpio_dm2[11] 1.78301e-05
23 gpio_holdover[11] gpio_out[11] 2.16353e-05
24 *91:9 *136:9 0.000207907
25 *91:15 *136:9 0.000207907
26 *91:31 gpio_dm1[11] 0.000242277
27 *91:31 gpio_inp_dis[11] 7.3716e-06
28 *91:31 *136:11 0.000936921
*RES
1 gpio_loopback_zero[11] *91:9 28.2393 
2 *91:9 *91:11 3.48 
3 *91:11 *91:13 3.48 
4 *91:13 *91:15 12.5321 
5 *91:15 *91:17 6.815 
6 *91:17 *91:31 28.2471 
7 *91:31 *91:35 11.48 
8 *91:35 *91:37 3.48 
9 *91:37 gpio_slow_sel[11] 24.0239 
10 *91:37 gpio_analog_en[11] 8.1568 
11 *91:35 gpio_dm0[11] 8.1568 
12 *91:31 gpio_analog_pol[11] 0.1568 
13 *91:17 gpio_analog_sel[11] 8.1568 
14 *91:15 gpio_holdover[11] 8.1568 
15 *91:13 gpio_vtrip_sel[11] 8.1568 
16 *91:11 gpio_ib_mode_sel[11] 8.1568 
17 *91:9 gpio_oeb[11] 8.1568 
*END

*D_NET *92 0.0125574
*CONN
*P gpio_oeb[12] O
*P gpio_ib_mode_sel[12] O
*P gpio_vtrip_sel[12] O
*P gpio_holdover[12] O
*P gpio_analog_sel[12] O
*P gpio_analog_pol[12] O
*P gpio_dm0[12] O
*P gpio_analog_en[12] O
*P gpio_slow_sel[12] O
*P gpio_loopback_zero[12] I
*CAP
1 gpio_oeb[12] 3.34592e-05
2 gpio_ib_mode_sel[12] 2.00528e-05
3 gpio_vtrip_sel[12] 7.91049e-05
4 gpio_holdover[12] 7.42986e-05
5 gpio_analog_sel[12] 9.28684e-05
6 gpio_analog_pol[12] 7.1875e-05
7 gpio_dm0[12] 6.55136e-05
8 gpio_analog_en[12] 0.000122403
9 gpio_slow_sel[12] 0.000887735
10 gpio_loopback_zero[12] 0.000961021
11 *92:29 0.00114565
12 *92:27 0.00028745
13 *92:25 0.000692632
14 *92:23 0.000897276
15 *92:21 0.000725138
16 *92:19 0.000559831
17 *92:13 0.000294485
18 *92:9 0.00116895
19 gpio_analog_en[12] gpio_dm1[12] 0
20 gpio_analog_pol[12] gpio_inp_dis[12] 2.05329e-05
21 gpio_analog_sel[12] gpio_dm2[12] 2.12019e-05
22 gpio_holdover[12] gpio_dm2[12] 2.04713e-05
23 gpio_holdover[12] gpio_out[12] 2.45583e-05
24 gpio_slow_sel[12] gpio_dm1[12] 0.000574962
25 *92:9 *137:9 0.000225234
26 *92:19 *137:9 0.000247447
27 *92:21 *137:9 0.000997268
28 *92:23 *137:9 0.000272919
29 *92:23 *137:11 0.000236161
30 *92:25 gpio_dm1[12] 0.000236161
31 *92:25 *137:11 0.00105425
32 *92:27 gpio_dm1[12] 0.000223236
33 *92:29 gpio_dm1[12] 0.000223236
*RES
1 gpio_loopback_zero[12] *92:9 28.2393 
2 *92:9 *92:13 11.48 
3 *92:13 *92:19 8.71773 
4 *92:19 *92:21 2.3408 
5 *92:21 *92:23 1.1984 
6 *92:23 *92:25 2.97547 
7 *92:25 *92:27 0.563733 
8 *92:27 *92:29 0.563733 
9 *92:29 gpio_slow_sel[12] 11.6913 
10 *92:29 gpio_analog_en[12] 25.2138 
11 *92:27 gpio_dm0[12] 8.36493 
12 *92:25 gpio_analog_pol[12] 8.35187 
13 *92:23 gpio_analog_sel[12] 8.35747 
14 *92:21 gpio_holdover[12] 8.32573 
15 *92:19 gpio_vtrip_sel[12] 8.35 
16 *92:13 gpio_ib_mode_sel[12] 0.1568 
17 *92:9 gpio_oeb[12] 8.1568 
*END

*D_NET *93 0.0106684
*CONN
*P gpio_out[13] O
*P gpio_holdover[13] O
*P gpio_dm2[13] O
*P gpio_analog_sel[13] O
*P gpio_analog_pol[13] O
*P gpio_dm0[13] O
*P gpio_analog_en[13] O
*P gpio_dm1[13] O
*P gpio_slow_sel[13] O
*P gpio_vtrip_sel[13] O
*P gpio_ib_mode_sel[13] O
*P gpio_loopback_zero[13] I
*CAP
1 gpio_out[13] 4.33865e-05
2 gpio_holdover[13] 2.81316e-05
3 gpio_dm2[13] 1.51183e-05
4 gpio_analog_sel[13] 4.95062e-05
5 gpio_analog_pol[13] 2.32074e-05
6 gpio_dm0[13] 1.19946e-05
7 gpio_analog_en[13] 7.59335e-06
8 gpio_dm1[13] 4.52036e-05
9 gpio_slow_sel[13] 0.000484294
10 gpio_vtrip_sel[13] 4.46184e-05
11 gpio_ib_mode_sel[13] 0.00120209
12 gpio_loopback_zero[13] 0.00099048
13 *93:83 0.000818495
14 *93:79 0.000501579
15 *93:69 0.000391455
16 *93:65 0.000932782
17 *93:61 0.00113032
18 *93:51 0.000523944
19 *93:47 0.000337162
20 *93:45 0.000632741
21 *93:33 0.000665313
22 *93:24 3.43553e-05
23 gpio_analog_pol[13] gpio_inp_dis[13] 2.16353e-05
24 gpio_ib_mode_sel[13] gpio_oeb[13] 1.94175e-05
25 gpio_ib_mode_sel[13] *245:11 0.000685896
26 *93:33 gpio_inp_dis[13] 0.000107127
27 *93:45 gpio_inp_dis[13] 0.000277518
28 *93:61 gpio_inp_dis[13] 0.000273004
29 *93:65 gpio_inp_dis[13] 0.000370035
*RES
1 gpio_loopback_zero[13] gpio_ib_mode_sel[13] 38.8671 
2 gpio_ib_mode_sel[13] *93:24 0.323867 
3 gpio_ib_mode_sel[13] *93:33 0.900667 
4 *93:33 gpio_vtrip_sel[13] 0.199733 
5 *93:33 *93:45 17.6736 
6 *93:45 *93:47 3.00357 
7 *93:47 *93:51 11.48 
8 *93:51 *93:61 17.1984 
9 *93:61 *93:65 23.8671 
10 *93:65 *93:69 11.48 
11 *93:69 *93:79 1.13867 
12 *93:79 *93:83 14.3386 
13 *93:83 gpio_slow_sel[13] 17.8304 
14 *93:83 gpio_dm1[13] 8.1568 
15 *93:79 gpio_analog_en[13] 0.1568 
16 *93:69 gpio_dm0[13] 0.1568 
17 *93:65 gpio_analog_pol[13] 8.1568 
18 *93:61 gpio_analog_sel[13] 0.1568 
19 *93:51 gpio_dm2[13] 0.1568 
20 *93:47 gpio_holdover[13] 8.1568 
21 *93:45 gpio_out[13] 8.1568 
*END

*D_NET *94 0.0113231
*CONN
*P gpio_vtrip_sel[14] O
*P gpio_out[14] O
*P gpio_holdover[14] O
*P gpio_dm2[14] O
*P gpio_analog_sel[14] O
*P gpio_analog_pol[14] O
*P gpio_dm0[14] O
*P gpio_analog_en[14] O
*P gpio_dm1[14] O
*P gpio_slow_sel[14] O
*P gpio_ib_mode_sel[14] O
*P gpio_loopback_zero[14] I
*CAP
1 gpio_vtrip_sel[14] 8.59057e-05
2 gpio_out[14] 3.22359e-05
3 gpio_holdover[14] 1.737e-05
4 gpio_dm2[14] 1.80579e-05
5 gpio_analog_sel[14] 2.63719e-05
6 gpio_analog_pol[14] 1.8408e-05
7 gpio_dm0[14] 1.80579e-05
8 gpio_analog_en[14] 1.95879e-05
9 gpio_dm1[14] 4.52036e-05
10 gpio_slow_sel[14] 0.000484294
11 gpio_ib_mode_sel[14] 2.98907e-05
12 gpio_loopback_zero[14] 0.00119054
13 *94:55 0.000829855
14 *94:53 0.000494417
15 *94:51 0.000367002
16 *94:47 0.000946805
17 *94:33 0.000954769
18 *94:31 0.000355642
19 *94:29 0.000326401
20 *94:27 0.000602037
21 *94:25 0.000703814
22 *94:13 0.00141445
23 gpio_analog_pol[14] gpio_inp_dis[14] 2.16353e-05
24 gpio_ib_mode_sel[14] gpio_oeb[14] 2.28949e-05
25 *94:13 gpio_inp_dis[14] 0.000284113
26 *94:13 *246:9 0.00101938
27 *94:47 gpio_inp_dis[14] 0.000994012
*RES
1 gpio_loopback_zero[14] *94:13 21.4096 
2 *94:13 gpio_ib_mode_sel[14] 0.199733 
3 *94:13 *94:25 11.8062 
4 *94:25 *94:27 9.34732 
5 *94:27 *94:29 3.00357 
6 *94:29 *94:31 3.48 
7 *94:31 *94:33 3.48 
8 *94:33 *94:47 28.3868 
9 *94:47 *94:51 11.48 
10 *94:51 *94:53 3.48 
11 *94:53 *94:55 6.33857 
12 *94:55 gpio_slow_sel[14] 17.8304 
13 *94:55 gpio_dm1[14] 8.1568 
14 *94:53 gpio_analog_en[14] 8.1568 
15 *94:51 gpio_dm0[14] 8.1568 
16 *94:47 gpio_analog_pol[14] 0.1568 
17 *94:33 gpio_analog_sel[14] 8.1568 
18 *94:31 gpio_dm2[14] 8.1568 
19 *94:29 gpio_holdover[14] 8.1568 
20 *94:27 gpio_out[14] 8.1568 
21 *94:25 gpio_vtrip_sel[14] 8.41347 
*END

*D_NET *95 0.0143412
*CONN
*P gpio_slow_sel[15] O
*P gpio_dm1[15] O
*P gpio_analog_en[15] O
*P gpio_dm0[15] O
*P gpio_analog_pol[15] O
*P gpio_analog_sel[15] O
*P gpio_dm2[15] O
*P gpio_holdover[15] O
*P gpio_out[15] O
*P gpio_vtrip_sel[15] O
*P gpio_ib_mode_sel[15] O
*P gpio_loopback_zero[15] I
*CAP
1 gpio_slow_sel[15] 0.00044819
2 gpio_dm1[15] 7.85145e-05
3 gpio_analog_en[15] 0.000582438
4 gpio_dm0[15] 0.000292172
5 gpio_analog_pol[15] 0.000762319
6 gpio_analog_sel[15] 0.000762319
7 gpio_dm2[15] 0.000292172
8 gpio_holdover[15] 0.000271302
9 gpio_out[15] 0.000460907
10 gpio_vtrip_sel[15] 0.000474971
11 gpio_ib_mode_sel[15] 0.00189421
12 gpio_loopback_zero[15] 0.00175493
13 *95:83 0.000963057
14 gpio_analog_pol[15] gpio_inp_dis[15] 0.00107209
15 gpio_ib_mode_sel[15] gpio_inp_dis[15] 0.000245086
16 gpio_ib_mode_sel[15] *247:9 0.00300907
17 gpio_out[15] gpio_inp_dis[15] 0.000977432
*RES
1 gpio_loopback_zero[15] gpio_ib_mode_sel[15] 26.807 
2 gpio_ib_mode_sel[15] gpio_vtrip_sel[15] 3.335 
3 gpio_vtrip_sel[15] gpio_out[15] 18.3948 
4 gpio_out[15] gpio_holdover[15] 2.85857 
5 gpio_holdover[15] gpio_dm2[15] 3.335 
6 gpio_dm2[15] gpio_analog_sel[15] 3.335 
7 gpio_analog_sel[15] gpio_analog_pol[15] 21.378 
8 gpio_analog_pol[15] gpio_dm0[15] 3.335 
9 gpio_dm0[15] gpio_analog_en[15] 3.335 
10 gpio_analog_en[15] *95:83 10.8087 
11 *95:83 gpio_dm1[15] 9.63643 
12 *95:83 gpio_slow_sel[15] 11.084 
*END

*D_NET *96 0.0114644
*CONN
*P gpio_slow_sel[16] O
*P gpio_dm1[16] O
*P gpio_analog_en[16] O
*P gpio_dm0[16] O
*P gpio_analog_pol[16] O
*P gpio_analog_sel[16] O
*P gpio_dm2[16] O
*P gpio_holdover[16] O
*P gpio_out[16] O
*P gpio_vtrip_sel[16] O
*P gpio_ib_mode_sel[16] O
*P gpio_loopback_zero[16] I
*CAP
1 gpio_slow_sel[16] 0.000448192
2 gpio_dm1[16] 2.40452e-05
3 gpio_analog_en[16] 0.000509066
4 gpio_dm0[16] 0.000292172
5 gpio_analog_pol[16] 0.000870732
6 gpio_analog_sel[16] 0.000870732
7 gpio_dm2[16] 0.000292172
8 gpio_holdover[16] 0.000271302
9 gpio_out[16] 0.000463133
10 gpio_vtrip_sel[16] 0.000484002
11 gpio_ib_mode_sel[16] 0.00159582
12 gpio_loopback_zero[16] 0.00144973
13 *96:79 0.000835218
14 gpio_analog_pol[16] gpio_inp_dis[16] 0.00107209
15 gpio_ib_mode_sel[16] gpio_inp_dis[16] 0.000197959
16 gpio_ib_mode_sel[16] gpio_oeb[16] 0
17 gpio_ib_mode_sel[16] *248:11 0.00099992
18 gpio_out[16] gpio_inp_dis[16] 0.000788119
*RES
1 gpio_loopback_zero[16] gpio_ib_mode_sel[16] 25.4237 
2 gpio_ib_mode_sel[16] gpio_vtrip_sel[16] 3.335 
3 gpio_vtrip_sel[16] gpio_out[16] 19.4806 
4 gpio_out[16] gpio_holdover[16] 2.85857 
5 gpio_holdover[16] gpio_dm2[16] 3.335 
6 gpio_dm2[16] gpio_analog_sel[16] 3.335 
7 gpio_analog_sel[16] gpio_analog_pol[16] 21.0556 
8 gpio_analog_pol[16] gpio_dm0[16] 3.335 
9 gpio_dm0[16] gpio_analog_en[16] 3.335 
10 gpio_analog_en[16] *96:79 9.7212 
11 *96:79 gpio_dm1[16] 8.54893 
12 *96:79 gpio_slow_sel[16] 10.9317 
*END

*D_NET *97 0.0116136
*CONN
*P gpio_slow_sel[17] O
*P gpio_dm1[17] O
*P gpio_analog_en[17] O
*P gpio_dm0[17] O
*P gpio_analog_pol[17] O
*P gpio_analog_sel[17] O
*P gpio_dm2[17] O
*P gpio_holdover[17] O
*P gpio_out[17] O
*P gpio_vtrip_sel[17] O
*P gpio_ib_mode_sel[17] O
*P gpio_loopback_zero[17] I
*CAP
1 gpio_slow_sel[17] 0.000401937
2 gpio_dm1[17] 6.5784e-05
3 gpio_analog_en[17] 0.000645912
4 gpio_dm0[17] 0.000292172
5 gpio_analog_pol[17] 0.000798435
6 gpio_analog_sel[17] 0.000798435
7 gpio_dm2[17] 0.000292172
8 gpio_holdover[17] 0.000271302
9 gpio_out[17] 0.000484584
10 gpio_vtrip_sel[17] 0.000505453
11 gpio_ib_mode_sel[17] 0.00149861
12 gpio_loopback_zero[17] 0.00135253
13 *97:91 0.000967547
14 gpio_analog_pol[17] gpio_inp_dis[17] 0.000637744
15 gpio_ib_mode_sel[17] gpio_inp_dis[17] 0.00022018
16 gpio_ib_mode_sel[17] gpio_oeb[17] 0.00173469
17 gpio_out[17] gpio_inp_dis[17] 0.000646134
*RES
1 gpio_loopback_zero[17] gpio_ib_mode_sel[17] 24.1645 
2 gpio_ib_mode_sel[17] gpio_vtrip_sel[17] 3.335 
3 gpio_vtrip_sel[17] gpio_out[17] 20.6523 
4 gpio_out[17] gpio_holdover[17] 2.85857 
5 gpio_holdover[17] gpio_dm2[17] 3.335 
6 gpio_dm2[17] gpio_analog_sel[17] 3.335 
7 gpio_analog_sel[17] gpio_analog_pol[17] 21.4461 
8 gpio_analog_pol[17] gpio_dm0[17] 3.335 
9 gpio_dm0[17] gpio_analog_en[17] 3.335 
10 gpio_analog_en[17] *97:91 11.1328 
11 *97:91 gpio_dm1[17] 9.50179 
12 *97:91 gpio_slow_sel[17] 11.1505 
*END

*D_NET *98 0.0122661
*CONN
*P gpio_slow_sel[18] O
*P gpio_dm1[18] O
*P gpio_analog_en[18] O
*P gpio_dm0[18] O
*P gpio_analog_pol[18] O
*P gpio_analog_sel[18] O
*P gpio_dm2[18] O
*P gpio_holdover[18] O
*P gpio_out[18] O
*P gpio_vtrip_sel[18] O
*P gpio_ib_mode_sel[18] O
*P gpio_loopback_zero[18] I
*CAP
1 gpio_slow_sel[18] 0.000502274
2 gpio_dm1[18] 2.40452e-05
3 gpio_analog_en[18] 0.000509066
4 gpio_dm0[18] 0.000274478
5 gpio_analog_pol[18] 2.40452e-05
6 gpio_analog_sel[18] 0.000871168
7 gpio_dm2[18] 0.000292172
8 gpio_holdover[18] 0.000253609
9 gpio_out[18] 2.40452e-05
10 gpio_vtrip_sel[18] 0.000496746
11 gpio_ib_mode_sel[18] 0.0015382
12 gpio_loopback_zero[18] 0.00139211
13 *98:73 0.0008893
14 *98:53 0.00087752
15 *98:27 0.000482228
16 gpio_ib_mode_sel[18] gpio_inp_dis[18] 0.000125523
17 gpio_ib_mode_sel[18] gpio_oeb[18] 0.00168736
18 *98:27 gpio_inp_dis[18] 0.000977432
19 *98:53 gpio_inp_dis[18] 0.00102476
*RES
1 gpio_loopback_zero[18] gpio_ib_mode_sel[18] 25.1838 
2 gpio_ib_mode_sel[18] gpio_vtrip_sel[18] 3.335 
3 gpio_vtrip_sel[18] *98:27 18.3223 
4 *98:27 gpio_out[18] 0.548929 
5 *98:27 gpio_holdover[18] 2.45464 
6 gpio_holdover[18] gpio_dm2[18] 3.335 
7 gpio_dm2[18] gpio_analog_sel[18] 3.335 
8 gpio_analog_sel[18] *98:53 19.8291 
9 *98:53 gpio_analog_pol[18] 0.548929 
10 *98:53 gpio_dm0[18] 2.93107 
11 gpio_dm0[18] gpio_analog_en[18] 3.335 
12 gpio_analog_en[18] *98:73 9.7212 
13 *98:73 gpio_dm1[18] 8.54893 
14 *98:73 gpio_slow_sel[18] 11.3904 
*END

*D_NET *99 0.0143147
*CONN
*P gpio_slow_sel[19] O
*P gpio_dm1[19] O
*P gpio_analog_sel[19] O
*P gpio_analog_en[19] O
*P gpio_dm0[19] O
*P gpio_analog_pol[19] O
*P gpio_dm2[19] O
*P gpio_holdover[19] O
*P gpio_out[19] O
*P gpio_vtrip_sel[19] O
*P gpio_ib_mode_sel[19] O
*P gpio_loopback_zero[19] I
*CAP
1 gpio_slow_sel[19] 0.00043625
2 gpio_dm1[19] 8.89492e-05
3 gpio_analog_sel[19] 2.40452e-05
4 gpio_analog_en[19] 0.000599554
5 gpio_dm0[19] 0.000292172
6 gpio_analog_pol[19] 0.000780065
7 gpio_dm2[19] 0.000274478
8 gpio_holdover[19] 0.000271302
9 gpio_out[19] 0.000470283
10 gpio_vtrip_sel[19] 0.000491153
11 gpio_ib_mode_sel[19] 0.0017634
12 gpio_loopback_zero[19] 0.00161731
13 *99:79 0.000978667
14 *99:41 0.000786417
15 gpio_analog_pol[19] gpio_inp_dis[19] 0.00121407
16 gpio_ib_mode_sel[19] gpio_inp_dis[19] 0.000141985
17 gpio_ib_mode_sel[19] *251:9 0.00334385
18 gpio_out[19] gpio_inp_dis[19] 0.000740791
*RES
1 gpio_loopback_zero[19] gpio_ib_mode_sel[19] 26.5687 
2 gpio_ib_mode_sel[19] gpio_vtrip_sel[19] 3.335 
3 gpio_vtrip_sel[19] gpio_out[19] 19.8711 
4 gpio_out[19] gpio_holdover[19] 2.85857 
5 gpio_holdover[19] gpio_dm2[19] 3.335 
6 gpio_dm2[19] *99:41 2.93107 
7 *99:41 gpio_analog_pol[19] 19.4385 
8 gpio_analog_pol[19] gpio_dm0[19] 3.335 
9 gpio_dm0[19] gpio_analog_en[19] 3.335 
10 *99:41 gpio_analog_sel[19] 0.548929 
11 gpio_analog_en[19] *99:79 11.0469 
12 *99:79 gpio_dm1[19] 9.87464 
13 *99:79 gpio_slow_sel[19] 11.2363 
*END

*D_NET *100 0.0113149
*CONN
*P gpio_oeb[1] O
*P gpio_ib_mode_sel[1] O
*P gpio_vtrip_sel[1] O
*P gpio_holdover[1] O
*P gpio_analog_sel[1] O
*P gpio_inp_dis[1] O
*P gpio_analog_pol[1] O
*P gpio_analog_en[1] O
*P gpio_slow_sel[1] O
*P gpio_loopback_zero[1] I
*CAP
1 gpio_oeb[1] 3.24618e-05
2 gpio_ib_mode_sel[1] 1.80579e-05
3 gpio_vtrip_sel[1] 2.97043e-05
4 gpio_holdover[1] 3.39533e-05
5 gpio_analog_sel[1] 4.44563e-05
6 gpio_inp_dis[1] 3.22359e-05
7 gpio_analog_pol[1] 2.93646e-05
8 gpio_analog_en[1] 4.10264e-05
9 gpio_slow_sel[1] 0.000840892
10 gpio_loopback_zero[1] 0.00120323
11 *100:39 0.00121081
12 *100:35 0.000504177
13 *100:33 0.000764669
14 *100:31 0.000959865
15 *100:27 0.000899635
16 *100:13 0.000729604
17 *100:11 0.000355642
18 *100:9 0.00141017
19 gpio_analog_en[1] gpio_dm0[1] 1.50156e-05
20 gpio_analog_en[1] gpio_dm1[1] 0
21 gpio_analog_pol[1] gpio_dm0[1] 1.78301e-05
22 gpio_analog_sel[1] gpio_dm2[1] 1.78301e-05
23 gpio_holdover[1] gpio_dm2[1] 1.27275e-05
24 gpio_holdover[1] gpio_out[1] 1.83467e-05
25 gpio_slow_sel[1] gpio_dm0[1] 2.88858e-06
26 gpio_slow_sel[1] gpio_dm1[1] 0.000494728
27 *100:9 *134:9 0.0003292
28 *100:27 gpio_dm2[1] 1.01674e-05
29 *100:27 gpio_out[1] 7.3716e-06
30 *100:27 *134:9 0.000712258
31 *100:27 *134:11 0.000242062
32 *100:33 *134:13 0.000294545
*RES
1 gpio_loopback_zero[1] *100:9 33.4179 
2 *100:9 *100:11 3.48 
3 *100:11 *100:13 3.48 
4 *100:13 *100:27 27.2385 
5 *100:27 *100:31 14.815 
6 *100:31 *100:33 13.0086 
7 *100:33 *100:35 3.00357 
8 *100:35 *100:39 14.815 
9 *100:39 gpio_slow_sel[1] 36.0948 
10 *100:39 gpio_analog_en[1] 0.1568 
11 *100:35 gpio_analog_pol[1] 8.1568 
12 *100:33 gpio_inp_dis[1] 8.1568 
13 *100:31 gpio_analog_sel[1] 8.1568 
14 *100:27 gpio_holdover[1] 0.1568 
15 *100:13 gpio_vtrip_sel[1] 8.1568 
16 *100:11 gpio_ib_mode_sel[1] 8.1568 
17 *100:9 gpio_oeb[1] 8.1568 
*END

*D_NET *101 0.0139251
*CONN
*P gpio_slow_sel[20] O
*P gpio_dm1[20] O
*P gpio_analog_en[20] O
*P gpio_dm0[20] O
*P gpio_analog_pol[20] O
*P gpio_analog_sel[20] O
*P gpio_dm2[20] O
*P gpio_holdover[20] O
*P gpio_out[20] O
*P gpio_vtrip_sel[20] O
*P gpio_ib_mode_sel[20] O
*P gpio_loopback_zero[20] I
*CAP
1 gpio_slow_sel[20] 0.000613281
2 gpio_dm1[20] 7.62187e-05
3 gpio_analog_en[20] 0.000393793
4 gpio_dm0[20] 0.000292172
5 gpio_analog_pol[20] 0.000820687
6 gpio_analog_sel[20] 0.000820687
7 gpio_dm2[20] 0.000292172
8 gpio_holdover[20] 0.000271302
9 gpio_out[20] 0.00044893
10 gpio_vtrip_sel[20] 0.0004698
11 gpio_ib_mode_sel[20] 0.00179465
12 gpio_loopback_zero[20] 0.00164857
13 *101:72 0.000937206
14 gpio_analog_pol[20] gpio_inp_dis[20] 0.000977432
15 gpio_ib_mode_sel[20] gpio_inp_dis[20] 0.000125523
16 gpio_ib_mode_sel[20] gpio_oeb[20] 0.00296522
17 gpio_out[20] gpio_inp_dis[20] 0.000977432
*RES
1 gpio_loopback_zero[20] gpio_ib_mode_sel[20] 26.8541 
2 gpio_ib_mode_sel[20] gpio_vtrip_sel[20] 3.335 
3 gpio_vtrip_sel[20] gpio_out[20] 18.084 
4 gpio_out[20] gpio_holdover[20] 2.85857 
5 gpio_holdover[20] gpio_dm2[20] 3.335 
6 gpio_dm2[20] gpio_analog_sel[20] 3.335 
7 gpio_analog_sel[20] gpio_analog_pol[20] 21.378 
8 gpio_analog_pol[20] gpio_dm0[20] 3.335 
9 gpio_dm0[20] gpio_analog_en[20] 3.335 
10 gpio_analog_en[20] *101:72 9.53008 
11 *101:72 gpio_dm1[20] 9.74 
12 *101:72 gpio_slow_sel[20] 11.5133 
*END

*D_NET *102 0.0146597
*CONN
*P gpio_slow_sel[21] O
*P gpio_dm1[21] O
*P gpio_analog_en[21] O
*P gpio_dm0[21] O
*P gpio_analog_pol[21] O
*P gpio_analog_sel[21] O
*P gpio_dm2[21] O
*P gpio_holdover[21] O
*P gpio_out[21] O
*P gpio_vtrip_sel[21] O
*P gpio_ib_mode_sel[21] O
*P gpio_loopback_zero[21] I
*CAP
1 gpio_slow_sel[21] 0.000458627
2 gpio_dm1[21] 1.36105e-05
3 gpio_analog_en[21] 0.000488368
4 gpio_dm0[21] 0.000292172
5 gpio_analog_pol[21] 0.00075763
6 gpio_analog_sel[21] 0.00075763
7 gpio_dm2[21] 0.000292172
8 gpio_holdover[21] 0.000264044
9 gpio_out[21] 1.36105e-05
10 gpio_vtrip_sel[21] 0.000536164
11 gpio_ib_mode_sel[21] 0.00175503
12 gpio_loopback_zero[21] 0.00160894
13 *102:93 0.000814519
14 *102:37 0.000521646
15 gpio_analog_pol[21] gpio_inp_dis[21] 0.00102476
16 gpio_analog_sel[21] gpio_inp_dis[21] 0.000287395
17 gpio_dm2[21] gpio_inp_dis[21] 0.000287395
18 gpio_holdover[21] gpio_inp_dis[21] 0.000232058
19 gpio_ib_mode_sel[21] gpio_inp_dis[21] 0.000406017
20 gpio_ib_mode_sel[21] *253:9 0.00272858
21 gpio_vtrip_sel[21] gpio_inp_dis[21] 0.000287395
22 *102:37 gpio_inp_dis[21] 0.000831972
*RES
1 gpio_loopback_zero[21] gpio_ib_mode_sel[21] 26.6646 
2 gpio_ib_mode_sel[21] gpio_vtrip_sel[21] 3.335 
3 gpio_vtrip_sel[21] *102:37 20.105 
4 *102:37 gpio_out[21] 0.310714 
5 *102:37 gpio_holdover[21] 2.69286 
6 gpio_holdover[21] gpio_dm2[21] 3.335 
7 gpio_dm2[21] gpio_analog_sel[21] 3.335 
8 gpio_analog_sel[21] gpio_analog_pol[21] 21.378 
9 gpio_analog_pol[21] gpio_dm0[21] 3.335 
10 gpio_dm0[21] gpio_analog_en[21] 3.335 
11 gpio_analog_en[21] *102:93 9.48298 
12 *102:93 gpio_dm1[21] 8.31071 
13 *102:93 gpio_slow_sel[21] 11.1699 
*END

*D_NET *103 0.014404
*CONN
*P gpio_slow_sel[22] O
*P gpio_dm1[22] O
*P gpio_analog_en[22] O
*P gpio_dm0[22] O
*P gpio_analog_pol[22] O
*P gpio_analog_sel[22] O
*P gpio_dm2[22] O
*P gpio_holdover[22] O
*P gpio_out[22] O
*P gpio_vtrip_sel[22] O
*P gpio_ib_mode_sel[22] O
*P gpio_loopback_zero[22] I
*CAP
1 gpio_slow_sel[22] 0.000446686
2 gpio_dm1[22] 2.40452e-05
3 gpio_analog_en[22] 0.000509066
4 gpio_dm0[22] 0.000292172
5 gpio_analog_pol[22] 0.000807491
6 gpio_analog_sel[22] 0.000807491
7 gpio_dm2[22] 0.000292172
8 gpio_holdover[22] 0.000271302
9 gpio_out[22] 0.000463133
10 gpio_vtrip_sel[22] 0.000466308
11 gpio_ib_mode_sel[22] 2.40452e-05
12 gpio_loopback_zero[22] 0.00157361
13 *103:87 0.000833712
14 *103:11 0.00172605
15 gpio_analog_pol[22] gpio_inp_dis[22] 0.00111942
16 gpio_analog_sel[22] gpio_inp_dis[22] 0.000287395
17 gpio_dm2[22] gpio_inp_dis[22] 0.000287395
18 gpio_holdover[22] gpio_inp_dis[22] 0.000246338
19 gpio_out[22] gpio_inp_dis[22] 0.000788119
20 *103:11 gpio_inp_dis[22] 0.000267508
21 *103:11 *254:9 0.00287056
*RES
1 gpio_loopback_zero[22] *103:11 25.5046 
2 *103:11 gpio_ib_mode_sel[22] 0.548929 
3 *103:11 gpio_vtrip_sel[22] 2.93107 
4 gpio_vtrip_sel[22] gpio_out[22] 19.4806 
5 gpio_out[22] gpio_holdover[22] 2.85857 
6 gpio_holdover[22] gpio_dm2[22] 3.335 
7 gpio_dm2[22] gpio_analog_sel[22] 3.335 
8 gpio_analog_sel[22] gpio_analog_pol[22] 20.0547 
9 gpio_analog_pol[22] gpio_dm0[22] 3.335 
10 gpio_dm0[22] gpio_analog_en[22] 3.335 
11 gpio_analog_en[22] *103:87 9.7212 
12 *103:87 gpio_dm1[22] 8.54893 
13 *103:87 gpio_slow_sel[22] 11.3222 
*END

*D_NET *104 0.0128497
*CONN
*P gpio_slow_sel[23] O
*P gpio_dm1[23] O
*P gpio_analog_en[23] O
*P gpio_dm0[23] O
*P gpio_analog_sel[23] O
*P gpio_analog_pol[23] O
*P gpio_dm2[23] O
*P gpio_holdover[23] O
*P gpio_out[23] O
*P gpio_vtrip_sel[23] O
*P gpio_ib_mode_sel[23] O
*P gpio_loopback_zero[23] I
*CAP
1 gpio_slow_sel[23] 0.000513884
2 gpio_dm1[23] 5.24096e-05
3 gpio_analog_en[23] 0.000503717
4 gpio_dm0[23] 0.000292172
5 gpio_analog_sel[23] 6.4904e-05
6 gpio_analog_pol[23] 0.000834987
7 gpio_dm2[23] 0.000272264
8 gpio_holdover[23] 0.000271302
9 gpio_out[23] 0.000484584
10 gpio_vtrip_sel[23] 0.000505453
11 gpio_ib_mode_sel[23] 0.00177108
12 gpio_loopback_zero[23] 0.00162499
13 *104:93 0.000923925
14 *104:47 0.000879983
15 gpio_analog_pol[23] gpio_inp_dis[23] 0.000637744
16 gpio_ib_mode_sel[23] gpio_inp_dis[23] 7.81946e-05
17 gpio_ib_mode_sel[23] gpio_oeb[23] 0.00249194
18 gpio_out[23] gpio_inp_dis[23] 0.000646134
*RES
1 gpio_loopback_zero[23] gpio_ib_mode_sel[23] 25.6242 
2 gpio_ib_mode_sel[23] gpio_vtrip_sel[23] 3.335 
3 gpio_vtrip_sel[23] gpio_out[23] 20.6523 
4 gpio_out[23] gpio_holdover[23] 2.85857 
5 gpio_holdover[23] gpio_dm2[23] 3.335 
6 gpio_dm2[23] *104:47 2.93107 
7 *104:47 gpio_analog_pol[23] 19.4385 
8 *104:47 gpio_analog_sel[23] 1.39821 
9 gpio_analog_pol[23] gpio_dm0[23] 3.335 
10 gpio_dm0[23] gpio_analog_en[23] 3.335 
11 gpio_analog_en[23] *104:93 10.7893 
12 *104:93 gpio_dm1[23] 9.39821 
13 *104:93 gpio_slow_sel[23] 11.1034 
*END

*D_NET *105 0.0156011
*CONN
*P gpio_analog_sel[24] O
*P gpio_dm0[24] O
*P gpio_analog_en[24] O
*P gpio_slow_sel[24] O
*P gpio_analog_pol[24] O
*P gpio_holdover[24] O
*P gpio_vtrip_sel[24] O
*P gpio_ib_mode_sel[24] O
*P gpio_oeb[24] O
*P gpio_loopback_zero[24] I
*CAP
1 gpio_analog_sel[24] 7.3727e-05
2 gpio_dm0[24] 9.69372e-05
3 gpio_analog_en[24] 5.61456e-05
4 gpio_slow_sel[24] 0.000792502
5 gpio_analog_pol[24] 2.91607e-05
6 gpio_holdover[24] 5.58842e-05
7 gpio_vtrip_sel[24] 5.7148e-05
8 gpio_ib_mode_sel[24] 0.000129898
9 gpio_oeb[24] 0.00022714
10 gpio_loopback_zero[24] 0.00179781
11 *105:87 0.000974036
12 *105:85 0.000337743
13 *105:75 0.000831659
14 *105:71 0.00117924
15 *105:55 0.00106634
16 *105:43 0.000720664
17 *105:21 0.000468691
18 *105:19 0.00198096
19 gpio_analog_en[24] gpio_dm1[24] 0
20 gpio_analog_pol[24] gpio_inp_dis[24] 2.16266e-05
21 gpio_analog_sel[24] gpio_dm2[24] 1.3094e-05
22 gpio_dm0[24] gpio_inp_dis[24] 0
23 gpio_holdover[24] gpio_dm2[24] 1.87463e-05
24 gpio_holdover[24] gpio_out[24] 1.6303e-05
25 gpio_slow_sel[24] gpio_dm1[24] 0.00016738
26 *105:19 *138:15 0.00280981
27 *105:19 *268:17 0.000538619
28 *105:55 *138:15 0.000241999
29 *105:71 gpio_dm2[24] 7.18895e-06
30 *105:71 gpio_out[24] 3.34421e-05
31 *105:71 *138:15 0.000116034
32 *105:71 *138:39 0.00018859
33 *105:75 gpio_dm1[24] 0.000117858
34 *105:75 *138:39 0.000161338
35 *105:85 gpio_dm1[24] 0.000139873
36 *105:87 gpio_dm1[24] 0.000133537
*RES
1 gpio_loopback_zero[24] *105:19 34.1043 
2 *105:19 *105:21 2.24232 
3 *105:21 gpio_oeb[24] 11.6368 
4 *105:21 gpio_ib_mode_sel[24] 8.8641 
5 *105:19 *105:43 1.38268 
6 *105:43 gpio_vtrip_sel[24] 8.1568 
7 *105:43 *105:55 20.5321 
8 *105:55 gpio_holdover[24] 0.1568 
9 *105:55 *105:71 17.8228 
10 *105:71 *105:75 23.7377 
11 *105:75 gpio_analog_pol[24] 8.1568 
12 *105:75 *105:85 3.48 
13 *105:85 *105:87 3.48 
14 *105:87 gpio_slow_sel[24] 25.2668 
15 *105:87 gpio_analog_en[24] 8.1568 
16 *105:85 gpio_dm0[24] 8.8641 
17 *105:71 gpio_analog_sel[24] 0.279067 
*END

*D_NET *106 0.0197031
*CONN
*P gpio_oeb[25] O
*P gpio_slow_sel[25] O
*P gpio_analog_en[25] O
*P gpio_dm0[25] O
*P gpio_analog_pol[25] O
*P gpio_analog_sel[25] O
*P gpio_holdover[25] O
*P gpio_vtrip_sel[25] O
*P gpio_ib_mode_sel[25] O
*P gpio_loopback_zero[25] I
*CAP
1 gpio_oeb[25] 7.98326e-05
2 gpio_slow_sel[25] 0.000544712
3 gpio_analog_en[25] 0.000107118
4 gpio_dm0[25] 6.29263e-05
5 gpio_analog_pol[25] 0.000118677
6 gpio_analog_sel[25] 0.000162236
7 gpio_holdover[25] 5.10078e-05
8 gpio_vtrip_sel[25] 6.12277e-05
9 gpio_ib_mode_sel[25] 3.43682e-05
10 gpio_loopback_zero[25] 0.000977977
11 *106:83 0.000732288
12 *106:73 0.000223844
13 *106:63 0.000689226
14 *106:53 0.000974058
15 *106:41 0.000953386
16 *106:29 0.000816347
17 *106:19 0.000388735
18 *106:13 0.0012377
19 gpio_analog_en[25] gpio_dm1[25] 0
20 gpio_analog_pol[25] gpio_dm1[25] 2.40097e-05
21 gpio_analog_pol[25] gpio_inp_dis[25] 1.83293e-05
22 gpio_analog_sel[25] gpio_dm2[25] 1.50005e-05
23 gpio_holdover[25] gpio_dm2[25] 1.21257e-05
24 gpio_holdover[25] gpio_out[25] 1.83293e-05
25 gpio_holdover[25] *139:17 5.34147e-06
26 gpio_slow_sel[25] gpio_dm1[25] 0.000506399
27 gpio_slow_sel[25] *268:17 0.0012289
28 *106:13 *139:17 0.00268224
29 *106:13 *268:17 0.00349051
30 *106:41 *269:17 0.00022183
31 *106:53 gpio_out[25] 2.74032e-05
32 *106:53 *139:17 0.000223352
33 *106:53 *268:17 0.000517304
34 *106:63 gpio_dm1[25] 0.000232887
35 *106:63 *268:17 0.00121429
36 *106:73 gpio_dm1[25] 0.000273004
37 *106:73 *268:17 0.000251605
38 *106:83 gpio_dm1[25] 0.000273004
39 *106:83 *268:17 0.000251605
*RES
1 gpio_loopback_zero[25] *106:13 24.5867 
2 *106:13 *106:19 11.408 
3 *106:19 gpio_ib_mode_sel[25] 8.08713 
4 *106:19 *106:29 3.48 
5 *106:29 gpio_vtrip_sel[25] 8.1568 
6 *106:29 *106:41 20.5321 
7 *106:41 gpio_holdover[25] 0.1568 
8 *106:41 *106:53 9.5288 
9 *106:53 gpio_analog_sel[25] 8.37147 
10 *106:53 *106:63 2.8896 
11 *106:63 gpio_analog_pol[25] 8.37147 
12 *106:63 *106:73 0.657067 
13 *106:73 gpio_dm0[25] 8.37147 
14 *106:73 *106:83 0.657067 
15 *106:83 gpio_analog_en[25] 8.37147 
16 *106:83 gpio_slow_sel[25] 11.2611 
17 *106:13 gpio_oeb[25] 0.286533 
*END

*D_NET *107 0.0204578
*CONN
*P gpio_slow_sel[26] O
*P gpio_analog_en[26] O
*P gpio_analog_pol[26] O
*P gpio_dm0[26] O
*P gpio_analog_sel[26] O
*P gpio_holdover[26] O
*P gpio_vtrip_sel[26] O
*P gpio_ib_mode_sel[26] O
*P gpio_oeb[26] O
*P gpio_loopback_zero[26] I
*CAP
1 gpio_slow_sel[26] 0.000608945
2 gpio_analog_en[26] 0.000136612
3 gpio_analog_pol[26] 0.000220498
4 gpio_dm0[26] 3.44283e-05
5 gpio_analog_sel[26] 0.000161797
6 gpio_holdover[26] 0.000122919
7 gpio_vtrip_sel[26] 0.000218502
8 gpio_ib_mode_sel[26] 2.20043e-05
9 gpio_oeb[26] 4.39418e-05
10 gpio_loopback_zero[26] 0.00162774
11 *107:101 0.000839253
12 *107:81 0.000335741
13 *107:77 0.000530767
14 *107:67 0.000692744
15 *107:57 0.000704485
16 *107:29 0.000295746
17 *107:27 0.000633332
18 *107:19 0.0018429
19 gpio_analog_pol[26] gpio_inp_dis[26] 1.5186e-05
20 gpio_analog_sel[26] gpio_dm2[26] 2.88035e-05
21 gpio_holdover[26] gpio_dm2[26] 2.864e-05
22 gpio_holdover[26] gpio_out[26] 1.75276e-05
23 gpio_holdover[26] *268:15 9.99315e-05
24 gpio_slow_sel[26] gpio_dm1[26] 0.000273772
25 gpio_slow_sel[26] *268:17 0.0012289
26 gpio_vtrip_sel[26] *268:9 0
27 *107:19 *269:17 0.00336265
28 *107:27 *270:17 0.000399603
29 *107:57 *140:13 0.00122262
30 *107:57 *268:17 7.81047e-05
31 *107:57 *269:17 5.46327e-05
32 *107:57 *270:17 0.00103151
33 *107:67 *140:13 0.00015955
34 *107:67 *140:27 0.000136696
35 *107:67 *268:17 0.000510517
36 *107:77 gpio_dm1[26] 0.000266101
37 *107:77 *140:27 0.000588516
38 *107:77 *268:17 0.00148051
39 *107:101 gpio_dm1[26] 0.000150029
40 *107:101 *268:17 0.000251605
*RES
1 gpio_loopback_zero[26] *107:19 25.1383 
2 *107:19 gpio_oeb[26] 0.371467 
3 *107:19 *107:27 0.657067 
4 *107:27 *107:29 0.270667 
5 *107:29 gpio_ib_mode_sel[26] 0.1568 
6 *107:29 gpio_vtrip_sel[26] 19.6368 
7 *107:27 *107:57 11.4011 
8 *107:57 gpio_holdover[26] 8.37147 
9 *107:57 *107:67 1.25813 
10 *107:67 gpio_analog_sel[26] 8.37147 
11 *107:67 *107:77 3.49067 
12 *107:77 *107:81 8.27067 
13 *107:81 gpio_dm0[26] 0.1568 
14 *107:81 gpio_analog_pol[26] 19.6368 
15 *107:77 *107:101 0.657067 
16 *107:101 gpio_analog_en[26] 8.37147 
17 *107:101 gpio_slow_sel[26] 11.2611 
*END

*D_NET *108 0.0175913
*CONN
*P gpio_analog_en[27] O
*P gpio_slow_sel[27] O
*P gpio_dm0[27] O
*P gpio_analog_pol[27] O
*P gpio_analog_sel[27] O
*P gpio_holdover[27] O
*P gpio_vtrip_sel[27] O
*P gpio_ib_mode_sel[27] O
*P gpio_oeb[27] O
*P gpio_loopback_zero[27] I
*CAP
1 gpio_analog_en[27] 0.000131574
2 gpio_slow_sel[27] 0.000634743
3 gpio_dm0[27] 2.86924e-05
4 gpio_analog_pol[27] 4.29595e-05
5 gpio_analog_sel[27] 6.47529e-05
6 gpio_holdover[27] 3.34294e-05
7 gpio_vtrip_sel[27] 5.01095e-05
8 gpio_ib_mode_sel[27] 3.02873e-05
9 gpio_oeb[27] 0.000242192
10 gpio_loopback_zero[27] 0.000567242
11 *108:91 0.000876728
12 *108:81 0.000313577
13 *108:71 0.000941174
14 *108:61 0.00112875
15 *108:51 0.000977067
16 *108:41 0.000816605
17 *108:31 0.00037836
18 *108:9 0.000994394
19 gpio_analog_en[27] *268:9 0
20 gpio_analog_pol[27] gpio_inp_dis[27] 1.6303e-05
21 gpio_analog_sel[27] gpio_dm2[27] 1.3094e-05
22 gpio_holdover[27] gpio_out[27] 2.16266e-05
23 gpio_holdover[27] *269:15 2.52409e-05
24 gpio_slow_sel[27] gpio_dm1[27] 8.54524e-06
25 gpio_slow_sel[27] *268:9 0
26 gpio_slow_sel[27] *269:17 0.000839862
27 gpio_slow_sel[27] *270:17 0.000829344
28 *108:9 *270:17 0.00323589
29 *108:9 *271:17 0.00324115
30 *108:31 *270:17 0.000278537
31 *108:31 *271:17 0.000264445
32 *108:41 *269:9 0
33 *108:51 *269:9 0
34 *108:51 *271:17 0.00022183
35 *108:61 *268:9 0
36 *108:61 *269:9 0
37 *108:71 *268:9 0
38 *108:71 *269:17 0.000342844
39 *108:81 *268:9 0
40 *108:91 *268:9 0
*RES
1 gpio_loopback_zero[27] *108:9 15.5973 
2 *108:9 gpio_oeb[27] 8.84093 
3 *108:9 *108:31 17.7787 
4 *108:31 gpio_ib_mode_sel[27] 8.1568 
5 *108:31 *108:41 3.48 
6 *108:41 gpio_vtrip_sel[27] 8.1568 
7 *108:41 *108:51 12.5321 
8 *108:51 gpio_holdover[27] 8.1568 
9 *108:51 *108:61 6.815 
10 *108:61 gpio_analog_sel[27] 8.1568 
11 *108:61 *108:71 15.8671 
12 *108:71 gpio_analog_pol[27] 8.1568 
13 *108:71 *108:81 3.48 
14 *108:81 gpio_dm0[27] 8.1568 
15 *108:81 *108:91 2.22161 
16 *108:91 gpio_slow_sel[27] 48.8759 
17 *108:91 gpio_analog_en[27] 9.56019 
*END

*D_NET *109 0.0185213
*CONN
*P gpio_oeb[28] O
*P gpio_ib_mode_sel[28] O
*P gpio_slow_sel[28] O
*P gpio_analog_en[28] O
*P gpio_dm0[28] O
*P gpio_analog_pol[28] O
*P gpio_analog_sel[28] O
*P gpio_holdover[28] O
*P gpio_vtrip_sel[28] O
*P gpio_loopback_zero[28] I
*CAP
1 gpio_oeb[28] 0.0002357
2 gpio_ib_mode_sel[28] 4.37752e-05
3 gpio_slow_sel[28] 0.000692769
4 gpio_analog_en[28] 7.59011e-05
5 gpio_dm0[28] 3.78969e-05
6 gpio_analog_pol[28] 6.01732e-05
7 gpio_analog_sel[28] 0.000195233
8 gpio_holdover[28] 5.759e-05
9 gpio_vtrip_sel[28] 5.36785e-05
10 gpio_loopback_zero[28] 0.00159838
11 *109:107 0.000342437
12 *109:83 0.000883498
13 *109:73 0.000269468
14 *109:63 0.000620598
15 *109:49 0.000938518
16 *109:37 0.000949218
17 *109:23 0.00083275
18 *109:17 0.00184839
19 gpio_analog_en[28] gpio_dm1[28] 0
20 gpio_analog_pol[28] gpio_dm1[28] 1.39654e-05
21 gpio_analog_pol[28] gpio_inp_dis[28] 1.07019e-05
22 gpio_analog_pol[28] *142:31 1.59657e-05
23 gpio_analog_sel[28] gpio_dm2[28] 5.39889e-05
24 gpio_holdover[28] gpio_dm2[28] 1.3094e-05
25 gpio_holdover[28] gpio_out[28] 1.6303e-05
26 gpio_oeb[28] *270:9 0
27 gpio_slow_sel[28] gpio_dm1[28] 0.000485405
28 gpio_slow_sel[28] *269:9 0
29 gpio_slow_sel[28] *270:17 0.000358965
30 *109:17 *271:17 0.00347426
31 *109:23 *271:17 0.000308784
32 *109:37 *269:9 0
33 *109:37 *270:9 0
34 *109:37 *271:17 0.000110915
35 *109:49 gpio_dm2[28] 3.53804e-05
36 *109:49 gpio_out[28] 2.72653e-06
37 *109:49 *142:13 0.000299212
38 *109:49 *142:31 0.000232703
39 *109:49 *270:15 0
40 *109:49 *270:17 0.000524609
41 *109:63 *142:31 0.0010849
42 *109:63 *270:17 0.0012216
43 *109:73 gpio_dm1[28] 0.000266195
44 *109:73 *269:9 0
45 *109:83 gpio_dm1[28] 0.000255651
46 *109:83 *269:9 0
*RES
1 gpio_loopback_zero[28] *109:17 24.9376 
2 *109:17 *109:23 0.883867 
3 *109:23 gpio_vtrip_sel[28] 0.199733 
4 *109:23 *109:37 28.5321 
5 *109:37 gpio_holdover[28] 0.1568 
6 *109:37 *109:49 9.70053 
7 *109:49 gpio_analog_sel[28] 8.5432 
8 *109:49 *109:63 11.2461 
9 *109:63 gpio_analog_pol[28] 0.242667 
10 *109:63 *109:73 11.48 
11 *109:73 gpio_dm0[28] 8.24267 
12 *109:73 *109:83 3.48 
13 *109:83 gpio_analog_en[28] 8.24267 
14 *109:83 gpio_slow_sel[28] 24.6454 
15 *109:17 *109:107 0.340667 
16 *109:107 gpio_ib_mode_sel[28] 0.199733 
17 *109:107 gpio_oeb[28] 19.6368 
*END

*D_NET *110 0.0200222
*CONN
*P gpio_slow_sel[29] O
*P gpio_analog_en[29] O
*P gpio_analog_pol[29] O
*P gpio_dm0[29] O
*P gpio_analog_sel[29] O
*P gpio_holdover[29] O
*P gpio_vtrip_sel[29] O
*P gpio_ib_mode_sel[29] O
*P gpio_oeb[29] O
*P gpio_loopback_zero[29] I
*CAP
1 gpio_slow_sel[29] 0.000759878
2 gpio_analog_en[29] 0.000136612
3 gpio_analog_pol[29] 0.000212268
4 gpio_dm0[29] 3.75582e-05
5 gpio_analog_sel[29] 0.000195935
6 gpio_holdover[29] 0.000198518
7 gpio_vtrip_sel[29] 0.000226183
8 gpio_ib_mode_sel[29] 2.32257e-05
9 gpio_oeb[29] 5.22825e-05
10 gpio_loopback_zero[29] 0.00163137
11 *110:101 0.000976949
12 *110:81 0.000330641
13 *110:77 0.00050743
14 *110:63 0.000705803
15 *110:53 0.000706417
16 *110:29 0.000330682
17 *110:27 0.000615721
18 *110:19 0.00187391
19 gpio_analog_pol[29] gpio_inp_dis[29] 1.5186e-05
20 gpio_analog_pol[29] *270:9 0
21 gpio_analog_sel[29] gpio_dm2[29] 5.16904e-05
22 gpio_holdover[29] gpio_dm2[29] 5.11705e-05
23 gpio_holdover[29] gpio_out[29] 3.59765e-05
24 gpio_slow_sel[29] gpio_dm1[29] 0.000499093
25 gpio_slow_sel[29] *272:17 0.0012216
26 gpio_slow_sel[29] *277:9 0
27 gpio_vtrip_sel[29] *271:9 0
28 gpio_vtrip_sel[29] *271:15 0
29 *110:19 *272:17 0.00173106
30 *110:27 *273:9 0.000399603
31 *110:53 *143:13 0.0012503
32 *110:53 *272:17 0.000122268
33 *110:53 *273:9 0.00102421
34 *110:63 *143:13 0.000282093
35 *110:63 *143:31 0.000249822
36 *110:63 *272:17 0.000285288
37 *110:77 gpio_dm1[29] 0.000485
38 *110:77 *143:31 0.000828307
39 *110:77 *272:17 0.00144359
40 *110:101 gpio_dm1[29] 0.000273004
41 *110:101 *272:17 0.000251605
*RES
1 gpio_loopback_zero[29] *110:19 24.4924 
2 *110:19 gpio_oeb[29] 0.371467 
3 *110:19 *110:27 0.657067 
4 *110:27 *110:29 0.270667 
5 *110:29 gpio_ib_mode_sel[29] 0.1568 
6 *110:29 gpio_vtrip_sel[29] 19.6368 
7 *110:27 *110:53 11.1173 
8 *110:53 gpio_holdover[29] 8.5432 
9 *110:53 *110:63 1.25813 
10 *110:63 gpio_analog_sel[29] 8.5432 
11 *110:63 *110:77 3.7744 
12 *110:77 *110:81 8.27067 
13 *110:81 gpio_dm0[29] 0.1568 
14 *110:81 gpio_analog_pol[29] 19.6368 
15 *110:77 *110:101 0.657067 
16 *110:101 gpio_analog_en[29] 8.37147 
17 *110:101 gpio_slow_sel[29] 11.2611 
*END

*D_NET *111 0.0147832
*CONN
*P gpio_oeb[2] O
*P gpio_ib_mode_sel[2] O
*P gpio_vtrip_sel[2] O
*P gpio_holdover[2] O
*P gpio_analog_sel[2] O
*P gpio_dm0[2] O
*P gpio_analog_pol[2] O
*P gpio_analog_en[2] O
*P gpio_slow_sel[2] O
*P gpio_loopback_zero[2] I
*CAP
1 gpio_oeb[2] 0.000164763
2 gpio_ib_mode_sel[2] 9.71812e-05
3 gpio_vtrip_sel[2] 0.000170694
4 gpio_holdover[2] 0.000143689
5 gpio_analog_sel[2] 0.000132729
6 gpio_dm0[2] 1.7604e-05
7 gpio_analog_pol[2] 0.000218242
8 gpio_analog_en[2] 0.000109992
9 gpio_slow_sel[2] 0.000890775
10 gpio_loopback_zero[2] 0.000973693
11 *111:51 0.000322723
12 *111:29 0.00112885
13 *111:27 0.000939122
14 *111:21 0.00114394
15 *111:19 0.000827966
16 *111:17 0.000719674
17 *111:15 0.000400686
18 *111:13 0.00129021
19 gpio_analog_en[2] gpio_dm1[2] 1.95651e-05
20 gpio_analog_pol[2] gpio_inp_dis[2] 1.83467e-05
21 gpio_analog_sel[2] gpio_dm2[2] 2.64222e-05
22 gpio_analog_sel[2] *144:13 1.51984e-05
23 gpio_holdover[2] gpio_out[2] 3.33328e-05
24 gpio_holdover[2] *144:13 2.69345e-05
25 gpio_holdover[2] *144:31 2.95288e-05
26 gpio_slow_sel[2] gpio_dm1[2] 0.000134898
27 *111:13 *144:13 0.00118413
28 *111:13 *274:9 0.000660533
29 *111:15 *144:13 0.000273004
30 *111:17 *144:13 0.000273004
31 *111:19 *144:13 0.000991389
32 *111:21 *144:13 0.000259356
33 *111:21 *144:31 3.33274e-05
34 *111:27 gpio_dm1[2] 0.000530565
35 *111:27 *144:31 0.000300801
36 *111:29 gpio_dm1[2] 0.00028031
*RES
1 gpio_loopback_zero[2] *111:13 13.2379 
2 *111:13 *111:15 0.657067 
3 *111:15 *111:17 0.657067 
4 *111:17 *111:19 2.28853 
5 *111:19 *111:21 1.25813 
6 *111:21 *111:27 3.7744 
7 *111:27 *111:29 0.657067 
8 *111:29 gpio_slow_sel[2] 11.2611 
9 *111:29 gpio_analog_en[2] 8.37147 
10 *111:27 *111:51 8.27067 
11 *111:51 gpio_analog_pol[2] 19.6368 
12 *111:51 gpio_dm0[2] 0.1568 
13 *111:21 gpio_analog_sel[2] 8.5432 
14 *111:19 gpio_holdover[2] 8.5432 
15 *111:17 gpio_vtrip_sel[2] 8.5432 
16 *111:15 gpio_ib_mode_sel[2] 8.5432 
17 *111:13 gpio_oeb[2] 8.5432 
*END

*D_NET *112 0.0146818
*CONN
*P gpio_slow_sel[30] O
*P gpio_analog_en[30] O
*P gpio_dm0[30] O
*P gpio_analog_pol[30] O
*P gpio_analog_sel[30] O
*P gpio_holdover[30] O
*P gpio_vtrip_sel[30] O
*P gpio_ib_mode_sel[30] O
*P gpio_oeb[30] O
*P gpio_loopback_zero[30] I
*CAP
1 gpio_slow_sel[30] 0.000801919
2 gpio_analog_en[30] 6.12277e-05
3 gpio_dm0[30] 3.75582e-05
4 gpio_analog_pol[30] 5.54556e-05
5 gpio_analog_sel[30] 8.36646e-05
6 gpio_holdover[30] 2.55353e-05
7 gpio_vtrip_sel[30] 3.24935e-05
8 gpio_ib_mode_sel[30] 2.22256e-05
9 gpio_oeb[30] 7.20143e-05
10 gpio_loopback_zero[30] 0.000849565
11 *112:103 0.00102626
12 *112:93 0.000375143
13 *112:83 0.000967203
14 *112:69 0.00122226
15 *112:45 0.00101888
16 *112:33 0.000787629
17 *112:23 0.00035981
18 *112:11 0.00109605
19 gpio_analog_pol[30] gpio_inp_dis[30] 1.2976e-05
20 gpio_analog_sel[30] gpio_dm2[30] 3.37651e-06
21 gpio_holdover[30] gpio_out[30] 1.83293e-05
22 gpio_slow_sel[30] *271:9 0
23 gpio_slow_sel[30] *272:17 0.000277518
24 *112:11 *145:13 0.00124113
25 *112:11 *273:9 0.00304904
26 *112:23 *272:9 0
27 *112:33 *272:9 0
28 *112:45 *271:9 0
29 *112:45 *272:9 0
30 *112:69 gpio_dm2[30] 7.97123e-05
31 *112:69 gpio_out[30] 3.6843e-06
32 *112:69 *145:13 0.000242593
33 *112:69 *145:29 0.000130986
34 *112:69 *271:9 0
35 *112:69 *272:17 0.000334347
36 *112:83 *271:9 0
37 *112:83 *272:17 0.000393165
38 *112:93 *271:9 0
39 *112:103 *271:9 0
*RES
1 gpio_loopback_zero[30] *112:11 23.2231 
2 *112:11 gpio_oeb[30] 0.199733 
3 *112:11 *112:23 11.48 
4 *112:23 gpio_ib_mode_sel[30] 8.1568 
5 *112:23 *112:33 3.48 
6 *112:33 gpio_vtrip_sel[30] 8.1568 
7 *112:33 *112:45 20.5321 
8 *112:45 gpio_holdover[30] 0.1568 
9 *112:45 *112:69 27.6961 
10 *112:69 gpio_analog_sel[30] 8.3612 
11 *112:69 *112:83 15.9034 
12 *112:83 gpio_analog_pol[30] 8.1568 
13 *112:83 *112:93 3.48 
14 *112:93 gpio_dm0[30] 8.1568 
15 *112:93 *112:103 3.48 
16 *112:103 gpio_analog_en[30] 8.1568 
17 *112:103 gpio_slow_sel[30] 24.0239 
*END

*D_NET *113 0.0221277
*CONN
*P gpio_analog_en[31] O
*P gpio_slow_sel[31] O
*P gpio_dm0[31] O
*P gpio_analog_pol[31] O
*P gpio_analog_sel[31] O
*P gpio_holdover[31] O
*P gpio_vtrip_sel[31] O
*P gpio_ib_mode_sel[31] O
*P gpio_oeb[31] O
*P gpio_loopback_zero[31] I
*CAP
1 gpio_analog_en[31] 0.000323934
2 gpio_slow_sel[31] 0.000461717
3 gpio_dm0[31] 0.000131068
4 gpio_analog_pol[31] 0.000147085
5 gpio_analog_sel[31] 0.000168177
6 gpio_holdover[31] 0.000148998
7 gpio_vtrip_sel[31] 8.94249e-05
8 gpio_ib_mode_sel[31] 5.16806e-05
9 gpio_oeb[31] 4.71158e-05
10 gpio_loopback_zero[31] 0.00156227
11 *113:93 0.00144723
12 *113:77 0.00105526
13 *113:67 0.000885795
14 *113:57 0.00110978
15 *113:47 0.00132843
16 *113:35 0.00104503
17 *113:27 0.000535056
18 *113:19 0.00185107
19 gpio_analog_en[31] gpio_dm1[31] 0.000442621
20 gpio_analog_en[31] *272:9 0
21 gpio_analog_pol[31] gpio_inp_dis[31] 2.90018e-05
22 gpio_analog_sel[31] gpio_dm2[31] 2.40416e-05
23 gpio_holdover[31] gpio_dm2[31] 2.16937e-05
24 gpio_holdover[31] gpio_out[31] 6.35274e-05
25 gpio_slow_sel[31] *272:9 0
26 *113:19 *146:13 0.00180095
27 *113:19 *273:9 0.000754676
28 *113:27 *273:9 0.000399603
29 *113:35 *273:9 0.000399603
30 *113:47 *270:9 0.000105239
31 *113:47 *271:9 0.000115866
32 *113:47 *272:9 0.000269731
33 *113:47 *273:9 0.000984094
34 *113:47 *277:9 0
35 *113:57 *273:9 0.000517811
36 *113:57 *277:9 0
37 *113:67 *268:9 0.00014399
38 *113:67 *269:9 0.00014399
39 *113:67 *270:9 0.000175669
40 *113:67 *271:9 0.000193407
41 *113:67 *272:9 0.000450244
42 *113:67 *273:9 0.0012362
43 *113:67 *277:9 0
44 *113:77 *273:9 0.000251605
45 *113:77 *277:9 0
46 *113:93 gpio_dm1[31] 2.80038e-05
47 *113:93 *270:9 0.000114393
48 *113:93 *271:9 0.000125944
49 *113:93 *272:9 0.000146596
50 *113:93 *273:9 0.000800066
51 *113:93 *277:9 0
*RES
1 gpio_loopback_zero[31] *113:19 24.1191 
2 *113:19 gpio_oeb[31] 0.371467 
3 *113:19 *113:27 0.657067 
4 *113:27 gpio_ib_mode_sel[31] 0.371467 
5 *113:27 *113:35 0.657067 
6 *113:35 gpio_vtrip_sel[31] 0.371467 
7 *113:35 *113:47 10.5163 
8 *113:47 gpio_holdover[31] 8.5432 
9 *113:47 *113:57 1.25813 
10 *113:57 gpio_analog_sel[31] 8.5432 
11 *113:57 *113:67 2.8896 
12 *113:67 gpio_analog_pol[31] 8.5432 
13 *113:67 *113:77 0.657067 
14 *113:77 gpio_dm0[31] 8.5432 
15 *113:77 *113:93 18.3436 
16 *113:93 gpio_slow_sel[31] 17.1209 
17 *113:93 gpio_analog_en[31] 16.4477 
*END

*D_NET *114 0.0173296
*CONN
*P gpio_slow_sel[32] O
*P gpio_analog_en[32] O
*P gpio_dm0[32] O
*P gpio_analog_pol[32] O
*P gpio_analog_sel[32] O
*P gpio_holdover[32] O
*P gpio_vtrip_sel[32] O
*P gpio_ib_mode_sel[32] O
*P gpio_oeb[32] O
*P gpio_loopback_zero[32] I
*CAP
1 gpio_slow_sel[32] 4.95786e-05
2 gpio_analog_en[32] 4.90689e-05
3 gpio_dm0[32] 3.27954e-05
4 gpio_analog_pol[32] 5.49523e-05
5 gpio_analog_sel[32] 6.38094e-05
6 gpio_holdover[32] 9.48101e-05
7 gpio_vtrip_sel[32] 8.94249e-05
8 gpio_ib_mode_sel[32] 5.13643e-05
9 gpio_oeb[32] 6.1597e-05
10 gpio_loopback_zero[32] 0.00181107
11 *114:121 0.000835631
12 *114:95 0.000938775
13 *114:85 0.000251276
14 *114:75 0.00063322
15 *114:65 0.00105347
16 *114:51 0.00138093
17 *114:41 0.0010823
18 *114:31 0.000568469
19 *114:17 0.00215679
20 gpio_analog_en[32] gpio_dm1[32] 0
21 gpio_analog_pol[32] gpio_inp_dis[32] 2.16266e-05
22 gpio_analog_sel[32] gpio_dm2[32] 2.16937e-05
23 gpio_holdover[32] gpio_out[32] 4.66586e-05
24 gpio_holdover[32] *147:19 2.47419e-05
25 *114:17 *147:19 0.002754
26 *114:31 *147:19 0.00014108
27 *114:41 *147:19 0.000139071
28 *114:51 *147:19 0.00053695
29 *114:51 *277:9 0
30 *114:65 *147:19 0.000128295
31 *114:65 *277:9 0
32 *114:75 gpio_dm1[32] 0.000227173
33 *114:75 *147:31 0.00102037
34 *114:75 *271:9 0
35 *114:85 gpio_dm1[32] 0.000255651
36 *114:85 *271:9 0
37 *114:95 gpio_dm1[32] 0.000260028
38 *114:95 *271:9 0
39 *114:121 gpio_dm1[32] 0.000492937
40 *114:121 *271:9 0
41 *114:121 *277:9 0
*RES
1 gpio_loopback_zero[32] *114:17 25.4789 
2 *114:17 gpio_oeb[32] 0.301467 
3 *114:17 *114:31 8.83907 
4 *114:31 gpio_ib_mode_sel[32] 8.37147 
5 *114:31 *114:41 0.657067 
6 *114:41 gpio_vtrip_sel[32] 8.37147 
7 *114:41 *114:51 2.28853 
8 *114:51 gpio_holdover[32] 8.37147 
9 *114:51 *114:65 9.44293 
10 *114:65 gpio_analog_sel[32] 0.242667 
11 *114:65 *114:75 23.8671 
12 *114:75 gpio_analog_pol[32] 8.24267 
13 *114:75 *114:85 3.48 
14 *114:85 gpio_dm0[32] 8.24267 
15 *114:85 *114:95 3.48 
16 *114:95 gpio_analog_en[32] 8.24267 
17 *114:95 *114:121 45.9566 
18 *114:121 gpio_slow_sel[32] 8.1568 
*END

*D_NET *115 0.0177458
*CONN
*P gpio_slow_sel[33] O
*P gpio_analog_pol[33] O
*P gpio_dm0[33] O
*P gpio_analog_en[33] O
*P gpio_analog_sel[33] O
*P gpio_holdover[33] O
*P gpio_vtrip_sel[33] O
*P gpio_ib_mode_sel[33] O
*P gpio_oeb[33] O
*P gpio_loopback_zero[33] I
*CAP
1 gpio_slow_sel[33] 0.00079633
2 gpio_analog_pol[33] 0.000209818
3 gpio_dm0[33] 1.02279e-05
4 gpio_analog_en[33] 2.79338e-05
5 gpio_analog_sel[33] 5.97823e-05
6 gpio_holdover[33] 5.759e-05
7 gpio_vtrip_sel[33] 3.42295e-05
8 gpio_ib_mode_sel[33] 8.55119e-06
9 gpio_oeb[33] 1.84221e-05
10 gpio_loopback_zero[33] 0.0017351
11 *115:101 0.000422771
12 *115:85 0.00034524
13 *115:81 0.00177637
14 *115:69 0.00125442
15 *115:57 0.000967426
16 *115:47 0.000839687
17 *115:31 0.000396457
18 *115:19 0.00191663
19 gpio_analog_en[33] gpio_dm1[33] 0
20 gpio_analog_pol[33] gpio_inp_dis[33] 2.05213e-05
21 gpio_analog_pol[33] *270:9 0
22 gpio_analog_sel[33] gpio_dm2[33] 1.50005e-05
23 gpio_holdover[33] gpio_dm2[33] 1.3094e-05
24 gpio_holdover[33] gpio_out[33] 1.6303e-05
25 gpio_slow_sel[33] gpio_dm1[33] 0.000472345
26 gpio_slow_sel[33] *268:9 0.00014399
27 gpio_slow_sel[33] *269:9 0.00014399
28 gpio_slow_sel[33] *270:9 0.000287981
29 *115:19 *148:15 0.00255633
30 *115:31 *270:9 0
31 *115:47 *148:15 0.000308784
32 *115:57 *148:15 0.000241999
33 *115:57 *270:9 0
34 *115:69 *270:9 0
35 *115:81 gpio_dm1[33] 0.000733061
36 *115:81 *148:31 0.00104185
37 *115:81 *268:9 0.000207923
38 *115:81 *269:9 0.000207923
39 *115:81 *270:9 0.000350585
40 *115:101 gpio_dm1[33] 0.000107127
*RES
1 gpio_loopback_zero[33] *115:19 25.0244 
2 *115:19 gpio_oeb[33] 0.1568 
3 *115:19 *115:31 19.48 
4 *115:31 gpio_ib_mode_sel[33] 0.1568 
5 *115:31 *115:47 1.13867 
6 *115:47 gpio_vtrip_sel[33] 0.1568 
7 *115:47 *115:57 20.5321 
8 *115:57 gpio_holdover[33] 8.1568 
9 *115:57 *115:69 14.815 
10 *115:69 gpio_analog_sel[33] 0.1568 
11 *115:69 *115:81 12.3624 
12 *115:81 *115:85 8.27067 
13 *115:85 gpio_analog_en[33] 0.1568 
14 *115:85 *115:101 1.13867 
15 *115:101 gpio_dm0[33] 0.1568 
16 *115:101 gpio_analog_pol[33] 19.6368 
17 *115:81 gpio_slow_sel[33] 11.2611 
*END

*D_NET *116 0.0149736
*CONN
*P gpio_slow_sel[34] O
*P gpio_analog_en[34] O
*P gpio_dm0[34] O
*P gpio_analog_pol[34] O
*P gpio_analog_sel[34] O
*P gpio_holdover[34] O
*P gpio_vtrip_sel[34] O
*P gpio_ib_mode_sel[34] O
*P gpio_oeb[34] O
*P gpio_loopback_zero[34] I
*CAP
1 gpio_slow_sel[34] 0.00077563
2 gpio_analog_en[34] 6.8947e-05
3 gpio_dm0[34] 4.19035e-05
4 gpio_analog_pol[34] 9.10842e-05
5 gpio_analog_sel[34] 9.24469e-05
6 gpio_holdover[34] 9.56542e-05
7 gpio_vtrip_sel[34] 8.54738e-05
8 gpio_ib_mode_sel[34] 4.93089e-05
9 gpio_oeb[34] 4.99218e-05
10 gpio_loopback_zero[34] 4.08584e-05
11 *116:109 0.000973604
12 *116:95 0.000278147
13 *116:81 0.000884811
14 *116:67 0.00122233
15 *116:53 0.000957492
16 *116:39 0.000682032
17 *116:23 0.000385605
18 *116:9 0.00213448
19 *116:7 0.00196721
20 gpio_analog_en[34] gpio_dm1[34] 0
21 gpio_analog_pol[34] gpio_dm1[34] 3.69307e-06
22 gpio_analog_pol[34] gpio_inp_dis[34] 1.83293e-05
23 gpio_analog_sel[34] gpio_dm2[34] 1.50005e-05
24 gpio_dm0[34] gpio_dm1[34] 2.64769e-06
25 gpio_holdover[34] gpio_out[34] 1.5186e-05
26 gpio_holdover[34] *149:19 7.06625e-05
27 gpio_slow_sel[34] gpio_dm1[34] 0.000484696
28 gpio_slow_sel[34] *269:9 0
29 gpio_vtrip_sel[34] *149:19 3.89602e-05
30 *116:9 *149:19 0.000887409
31 *116:9 *269:9 0
32 *116:23 *269:9 0
33 *116:39 *149:19 0.000262834
34 *116:53 *149:19 0.00090546
35 *116:67 *149:19 0.00018902
36 *116:81 gpio_dm1[34] 0.000230564
37 *116:81 *149:31 0.000393165
38 *116:95 gpio_dm1[34] 0.000293149
39 *116:109 gpio_dm1[34] 0.000285843
*RES
1 gpio_loopback_zero[34] *116:7 8.1568 
2 *116:7 *116:9 42.9459 
3 *116:9 gpio_oeb[34] 8.1568 
4 *116:9 *116:23 10.8158 
5 *116:23 gpio_ib_mode_sel[34] 0.308933 
6 *116:23 *116:39 8.93147 
7 *116:39 gpio_vtrip_sel[34] 8.33507 
8 *116:39 *116:53 2.21387 
9 *116:53 gpio_holdover[34] 8.36307 
10 *116:53 *116:67 1.32533 
11 *116:67 gpio_analog_sel[34] 8.3276 
12 *116:67 *116:81 2.84853 
13 *116:81 gpio_analog_pol[34] 8.33693 
14 *116:81 *116:95 0.690667 
15 *116:95 gpio_dm0[34] 8.32013 
16 *116:95 *116:109 0.690667 
17 *116:109 gpio_analog_en[34] 8.35373 
18 *116:109 gpio_slow_sel[34] 31.8629 
*END

*D_NET *117 0.0159885
*CONN
*P gpio_slow_sel[35] O
*P gpio_dm1[35] O
*P gpio_analog_en[35] O
*P gpio_dm0[35] O
*P gpio_analog_pol[35] O
*P gpio_analog_sel[35] O
*P gpio_dm2[35] O
*P gpio_holdover[35] O
*P gpio_out[35] O
*P gpio_vtrip_sel[35] O
*P gpio_ib_mode_sel[35] O
*P gpio_loopback_zero[35] I
*CAP
1 gpio_slow_sel[35] 0.000576565
2 gpio_dm1[35] 7.21834e-05
3 gpio_analog_en[35] 9.0176e-05
4 gpio_dm0[35] 2.97789e-05
5 gpio_analog_pol[35] 2.352e-05
6 gpio_analog_sel[35] 0.000107118
7 gpio_dm2[35] 6.29263e-05
8 gpio_holdover[35] 6.20866e-05
9 gpio_out[35] 0.000111735
10 gpio_vtrip_sel[35] 0.000132651
11 gpio_ib_mode_sel[35] 1.29563e-05
12 gpio_loopback_zero[35] 0.00186655
13 *117:131 0.000973432
14 *117:117 0.000792522
15 *117:103 0.000584155
16 *117:89 0.000842174
17 *117:75 0.000924771
18 *117:65 0.000414353
19 *117:55 0.000380034
20 *117:45 0.000660241
21 *117:31 0.000791506
22 *117:19 0.00213209
23 gpio_analog_pol[35] gpio_inp_dis[35] 2.05213e-05
24 *117:19 gpio_inp_dis[35] 0.000122793
25 *117:19 gpio_oeb[35] 1.96951e-05
26 *117:19 *256:13 0.00116165
27 *117:31 gpio_inp_dis[35] 0.000264801
28 *117:31 gpio_oeb[35] 3.69356e-06
29 *117:45 gpio_inp_dis[35] 0.000752104
30 *117:55 gpio_inp_dis[35] 0.000218794
31 *117:65 gpio_inp_dis[35] 0.000251605
32 *117:75 gpio_inp_dis[35] 0.000251605
33 *117:89 gpio_inp_dis[35] 0.000989758
34 *117:89 *268:9 0.000287981
*RES
1 gpio_loopback_zero[35] *117:19 25.3529 
2 *117:19 gpio_ib_mode_sel[35] 0.1568 
3 *117:19 *117:31 8.90627 
4 *117:31 gpio_vtrip_sel[35] 8.50493 
5 *117:31 *117:45 1.7948 
6 *117:45 gpio_out[35] 8.37147 
7 *117:45 *117:55 0.5712 
8 *117:55 gpio_holdover[35] 8.37147 
9 *117:55 *117:65 0.657067 
10 *117:65 gpio_dm2[35] 8.37147 
11 *117:65 *117:75 0.657067 
12 *117:75 gpio_analog_sel[35] 8.37147 
13 *117:75 *117:89 11.1603 
14 *117:89 gpio_analog_pol[35] 0.1568 
15 *117:89 *117:103 1.04627 
16 *117:103 gpio_dm0[35] 0.2492 
17 *117:103 *117:117 8.91653 
18 *117:117 gpio_analog_en[35] 8.43587 
19 *117:117 *117:131 1.07147 
20 *117:131 gpio_dm1[35] 8.33507 
21 *117:131 gpio_slow_sel[35] 10.0617 
*END

*D_NET *118 0.0135179
*CONN
*P gpio_slow_sel[36] O
*P gpio_dm1[36] O
*P gpio_analog_en[36] O
*P gpio_dm0[36] O
*P gpio_analog_pol[36] O
*P gpio_analog_sel[36] O
*P gpio_dm2[36] O
*P gpio_holdover[36] O
*P gpio_out[36] O
*P gpio_vtrip_sel[36] O
*P gpio_ib_mode_sel[36] O
*P gpio_loopback_zero[36] I
*CAP
1 gpio_slow_sel[36] 0.000496264
2 gpio_dm1[36] 2.64142e-05
3 gpio_analog_en[36] 2.04292e-05
4 gpio_dm0[36] 6.07933e-06
5 gpio_analog_pol[36] 2.91607e-05
6 gpio_analog_sel[36] 5.01095e-05
7 gpio_dm2[36] 2.92739e-05
8 gpio_holdover[36] 2.87955e-05
9 gpio_out[36] 4.9643e-05
10 gpio_vtrip_sel[36] 4.91248e-05
11 gpio_ib_mode_sel[36] 5.58246e-05
12 gpio_loopback_zero[36] 0.00238104
13 *118:129 0.00107493
14 *118:109 0.000773362
15 *118:93 0.000381238
16 *118:81 0.000938719
17 *118:71 0.000959667
18 *118:61 0.000366858
19 *118:51 0.000337826
20 *118:41 0.000638997
21 *118:31 0.000669392
22 *118:19 0.00261369
23 gpio_analog_pol[36] gpio_inp_dis[36] 2.16266e-05
24 gpio_ib_mode_sel[36] gpio_oeb[36] 1.50005e-05
25 gpio_slow_sel[36] *268:9 0
26 *118:19 gpio_inp_dis[36] 0.000314728
27 *118:19 *257:9 0.000645254
28 *118:31 *268:9 0
29 *118:41 gpio_inp_dis[36] 0.000241999
30 *118:41 *268:9 0
31 *118:51 *268:9 0
32 *118:61 *268:9 0
33 *118:71 *268:9 0
34 *118:81 gpio_inp_dis[36] 0.000302506
35 *118:81 *268:9 0
36 *118:93 *268:9 0
*RES
1 gpio_loopback_zero[36] *118:19 25.6563 
2 *118:19 gpio_ib_mode_sel[36] 0.239867 
3 *118:19 *118:31 11.3298 
4 *118:31 gpio_vtrip_sel[36] 8.1568 
5 *118:31 *118:41 9.67357 
6 *118:41 gpio_out[36] 8.1568 
7 *118:41 *118:51 3.00357 
8 *118:51 gpio_holdover[36] 8.1568 
9 *118:51 *118:61 3.48 
10 *118:61 gpio_dm2[36] 8.1568 
11 *118:61 *118:71 3.48 
12 *118:71 gpio_analog_sel[36] 8.1568 
13 *118:71 *118:81 15.8671 
14 *118:81 gpio_analog_pol[36] 8.1568 
15 *118:81 *118:93 11.48 
16 *118:93 gpio_dm0[36] 0.1568 
17 *118:93 *118:109 1.13867 
18 *118:109 gpio_analog_en[36] 0.1568 
19 *118:109 *118:129 26.5336 
20 *118:129 gpio_dm1[36] 8.1568 
21 *118:129 gpio_slow_sel[36] 17.8304 
*END

*D_NET *119 0.0143602
*CONN
*P gpio_ib_mode_sel[37] O
*P gpio_dm2[37] O
*P gpio_slow_sel[37] O
*P gpio_dm1[37] O
*P gpio_analog_en[37] O
*P gpio_dm0[37] O
*P gpio_analog_pol[37] O
*P gpio_analog_sel[37] O
*P gpio_holdover[37] O
*P gpio_out[37] O
*P gpio_vtrip_sel[37] O
*P gpio_loopback_zero[37] I
*CAP
1 gpio_ib_mode_sel[37] 0.000121324
2 gpio_dm2[37] 6.0999e-05
3 gpio_slow_sel[37] 0.000555239
4 gpio_dm1[37] 4.85293e-05
5 gpio_analog_en[37] 3.88623e-05
6 gpio_dm0[37] 3.75717e-05
7 gpio_analog_pol[37] 7.8482e-05
8 gpio_analog_sel[37] 8.0242e-05
9 gpio_holdover[37] 2.87427e-05
10 gpio_out[37] 4.9643e-05
11 gpio_vtrip_sel[37] 5.01095e-05
12 gpio_loopback_zero[37] 0.00159758
13 *119:105 0.000948992
14 *119:93 0.000575669
15 *119:81 0.000445146
16 *119:67 0.000903087
17 *119:55 0.000837827
18 *119:51 0.000392039
19 *119:37 0.000368089
20 *119:27 0.000650357
21 *119:17 0.000757114
22 *119:11 0.00198247
23 gpio_analog_pol[37] gpio_inp_dis[37] 4.49749e-05
24 gpio_ib_mode_sel[37] gpio_oeb[37] 8.6061e-06
25 *119:11 gpio_inp_dis[37] 0.000129768
26 *119:11 *258:13 0.00191442
27 *119:17 gpio_oeb[37] 1.75357e-05
28 *119:27 gpio_inp_dis[37] 0.000241999
29 *119:55 gpio_inp_dis[37] 0.000289939
30 *119:67 gpio_inp_dis[37] 0.0011048
*RES
1 gpio_loopback_zero[37] *119:11 24.0379 
2 *119:11 *119:17 12.5533 
3 *119:17 gpio_vtrip_sel[37] 8.1568 
4 *119:17 *119:27 9.67357 
5 *119:27 gpio_out[37] 8.1568 
6 *119:27 *119:37 3.00357 
7 *119:37 gpio_holdover[37] 8.1568 
8 *119:37 *119:51 11.4391 
9 *119:51 *119:55 8.68227 
10 *119:55 gpio_analog_sel[37] 8.25573 
11 *119:55 *119:67 2.85693 
12 *119:67 gpio_analog_pol[37] 8.3444 
13 *119:67 *119:81 0.689733 
14 *119:81 gpio_dm0[37] 8.25573 
15 *119:81 *119:93 0.657067 
16 *119:93 gpio_analog_en[37] 8.25573 
17 *119:93 *119:105 1.17227 
18 *119:105 gpio_dm1[37] 8.25573 
19 *119:105 gpio_slow_sel[37] 10.0291 
20 *119:51 gpio_dm2[37] 0.280933 
21 *119:11 gpio_ib_mode_sel[37] 0.572133 
*END

*D_NET *120 0.0123469
*CONN
*P gpio_ib_mode_sel[38] O
*P gpio_vtrip_sel[38] O
*P gpio_out[38] O
*P gpio_holdover[38] O
*P gpio_dm2[38] O
*P gpio_analog_sel[38] O
*P gpio_analog_pol[38] O
*P gpio_dm0[38] O
*P gpio_analog_en[38] O
*P gpio_dm1[38] O
*P gpio_slow_sel[38] O
*P gpio_loopback_zero[38] I
*CAP
1 gpio_ib_mode_sel[38] 5.8458e-05
2 gpio_vtrip_sel[38] 6.61706e-05
3 gpio_out[38] 2.32443e-05
4 gpio_holdover[38] 7.52052e-06
5 gpio_dm2[38] 7.52052e-06
6 gpio_analog_sel[38] 7.24884e-05
7 gpio_analog_pol[38] 2.68003e-05
8 gpio_dm0[38] 2.04378e-05
9 gpio_analog_en[38] 3.45129e-05
10 gpio_dm1[38] 4.08755e-05
11 gpio_slow_sel[38] 0.000526873
12 gpio_loopback_zero[38] 0.00117566
13 *120:57 0.000897123
14 *120:55 0.000559012
15 *120:53 0.000410687
16 *120:51 0.000831667
17 *120:43 0.000830541
18 *120:37 0.000340294
19 *120:27 0.000356609
20 *120:17 0.000539666
21 *120:11 0.000539272
22 *120:9 0.00135542
23 gpio_analog_pol[38] gpio_inp_dis[38] 0
24 gpio_ib_mode_sel[38] gpio_oeb[38] 0
25 *120:9 gpio_inp_dis[38] 0.0003271
26 *120:9 *259:9 0.000648758
27 *120:11 gpio_inp_dis[38] 0.0003271
28 *120:17 gpio_inp_dis[38] 0.00097049
29 *120:51 gpio_inp_dis[38] 0.00135258
*RES
1 gpio_loopback_zero[38] *120:9 14.27 
2 *120:9 *120:11 0.657067 
3 *120:11 *120:17 10.6226 
4 *120:17 *120:27 4.99214 
5 *120:27 *120:37 5.46857 
6 *120:37 *120:43 3.99786 
7 *120:43 *120:51 11.2144 
8 *120:51 *120:53 0.657067 
9 *120:53 *120:55 0.657067 
10 *120:55 *120:57 1.17227 
11 *120:57 gpio_slow_sel[38] 10.5501 
12 *120:57 gpio_dm1[38] 8.77679 
13 *120:55 gpio_analog_en[38] 8.77679 
14 *120:53 gpio_dm0[38] 8.77679 
15 *120:51 gpio_analog_pol[38] 8.77679 
16 *120:43 gpio_analog_sel[38] 2.2475 
17 *120:37 gpio_dm2[38] 0.776786 
18 *120:27 gpio_holdover[38] 0.776786 
19 *120:17 gpio_out[38] 0.776786 
20 *120:11 gpio_vtrip_sel[38] 9.48107 
21 *120:9 gpio_ib_mode_sel[38] 9.48107 
*END

*D_NET *121 0.0137164
*CONN
*P gpio_ib_mode_sel[39] O
*P gpio_vtrip_sel[39] O
*P gpio_out[39] O
*P gpio_holdover[39] O
*P gpio_dm2[39] O
*P gpio_analog_sel[39] O
*P gpio_analog_pol[39] O
*P gpio_dm0[39] O
*P gpio_analog_en[39] O
*P gpio_dm1[39] O
*P gpio_slow_sel[39] O
*P gpio_loopback_zero[39] I
*CAP
1 gpio_ib_mode_sel[39] 5.8458e-05
2 gpio_vtrip_sel[39] 6.61706e-05
3 gpio_out[39] 5.8458e-05
4 gpio_holdover[39] 4.15429e-05
5 gpio_dm2[39] 4.15429e-05
6 gpio_analog_sel[39] 6.61706e-05
7 gpio_analog_pol[39] 4.22256e-05
8 gpio_dm0[39] 3.5863e-05
9 gpio_analog_en[39] 6.53634e-05
10 gpio_dm1[39] 4.08755e-05
11 gpio_slow_sel[39] 0.000541363
12 gpio_loopback_zero[39] 0.00141496
13 *121:31 0.000975422
14 *121:25 0.000668161
15 *121:23 0.000455092
16 *121:21 0.000810235
17 *121:19 0.000759151
18 *121:17 0.000310715
19 *121:15 0.000296996
20 *121:13 0.000492259
21 *121:11 0.00051369
22 *121:9 0.00160801
23 gpio_analog_pol[39] gpio_inp_dis[39] 0
24 gpio_ib_mode_sel[39] gpio_oeb[39] 0
25 *121:9 gpio_inp_dis[39] 0.000227894
26 *121:9 *260:9 0.000645753
27 *121:11 gpio_inp_dis[39] 0.000322892
28 *121:13 gpio_inp_dis[39] 0.00093816
29 *121:15 gpio_inp_dis[39] 0.000275563
30 *121:17 gpio_inp_dis[39] 0.000322892
31 *121:19 gpio_inp_dis[39] 0.000322892
32 *121:21 gpio_inp_dis[39] 0.00129758
*RES
1 gpio_loopback_zero[39] *121:9 15.1688 
2 *121:9 *121:11 0.657067 
3 *121:11 *121:13 1.77333 
4 *121:13 *121:15 0.5712 
5 *121:15 *121:17 0.657067 
6 *121:17 *121:19 0.657067 
7 *121:19 *121:21 2.8896 
8 *121:21 *121:23 0.657067 
9 *121:23 *121:25 0.657067 
10 *121:25 *121:31 1.4112 
11 *121:31 gpio_slow_sel[39] 10.5501 
12 *121:31 gpio_dm1[39] 8.77679 
13 *121:25 gpio_analog_en[39] 9.48107 
14 *121:23 gpio_dm0[39] 9.48107 
15 *121:21 gpio_analog_pol[39] 9.48107 
16 *121:19 gpio_analog_sel[39] 9.48107 
17 *121:17 gpio_dm2[39] 9.48107 
18 *121:15 gpio_holdover[39] 9.48107 
19 *121:13 gpio_out[39] 9.48107 
20 *121:11 gpio_vtrip_sel[39] 9.48107 
21 *121:9 gpio_ib_mode_sel[39] 9.48107 
*END

*D_NET *122 0.0139108
*CONN
*P gpio_oeb[3] O
*P gpio_ib_mode_sel[3] O
*P gpio_vtrip_sel[3] O
*P gpio_holdover[3] O
*P gpio_analog_sel[3] O
*P gpio_analog_pol[3] O
*P gpio_dm0[3] O
*P gpio_analog_en[3] O
*P gpio_slow_sel[3] O
*P gpio_loopback_zero[3] I
*CAP
1 gpio_oeb[3] 6.64274e-05
2 gpio_ib_mode_sel[3] 3.9568e-05
3 gpio_vtrip_sel[3] 8.00875e-05
4 gpio_holdover[3] 7.89512e-05
5 gpio_analog_sel[3] 3.4746e-05
6 gpio_analog_pol[3] 0.000107436
7 gpio_dm0[3] 7.47387e-05
8 gpio_analog_en[3] 0.000147222
9 gpio_slow_sel[3] 0.000811279
10 gpio_loopback_zero[3] 0.000977118
11 *122:43 0.00111025
12 *122:41 0.000354571
13 *122:39 0.000935983
14 *122:31 0.00101546
15 *122:23 0.000705199
16 *122:21 0.000511522
17 *122:19 0.00021078
18 *122:17 0.00112932
19 gpio_analog_en[3] gpio_dm1[3] 0
20 gpio_analog_pol[3] gpio_inp_dis[3] 5.19938e-05
21 gpio_analog_sel[3] gpio_dm2[3] 1.68383e-05
22 gpio_holdover[3] gpio_dm2[3] 1.68383e-05
23 gpio_holdover[3] gpio_out[3] 2.05329e-05
24 gpio_slow_sel[3] gpio_dm1[3] 0.000506979
25 *122:17 *150:9 0.00106652
26 *122:19 *150:9 0.000279045
27 *122:21 *150:9 0.000279045
28 *122:23 *150:9 0.000941459
29 *122:31 *150:9 0.000300196
30 *122:31 *150:11 0.000296619
31 *122:39 gpio_dm1[3] 0.000245189
32 *122:39 gpio_dm2[3] 0
33 *122:39 *150:11 0.000945541
34 *122:41 gpio_dm1[3] 0.00028031
35 *122:43 gpio_dm1[3] 0.000273004
*RES
1 gpio_loopback_zero[3] *122:17 29.8909 
2 *122:17 *122:19 0.690667 
3 *122:19 *122:21 0.690667 
4 *122:21 *122:23 2.21387 
5 *122:23 *122:31 9.5092 
6 *122:31 *122:39 11.388 
7 *122:39 *122:41 0.657067 
8 *122:41 *122:43 0.657067 
9 *122:43 gpio_slow_sel[3] 11.4328 
10 *122:43 gpio_analog_en[3] 8.5432 
11 *122:41 gpio_dm0[3] 8.5432 
12 *122:39 gpio_analog_pol[3] 8.5432 
13 *122:31 gpio_analog_sel[3] 0.1568 
14 *122:23 gpio_holdover[3] 8.35 
15 *122:21 gpio_vtrip_sel[3] 8.34813 
16 *122:19 gpio_ib_mode_sel[3] 8.31453 
17 *122:17 gpio_oeb[3] 8.34253 
*END

*D_NET *123 0.0112909
*CONN
*P gpio_ib_mode_sel[40] O
*P gpio_vtrip_sel[40] O
*P gpio_out[40] O
*P gpio_holdover[40] O
*P gpio_dm2[40] O
*P gpio_analog_sel[40] O
*P gpio_analog_pol[40] O
*P gpio_dm0[40] O
*P gpio_analog_en[40] O
*P gpio_dm1[40] O
*P gpio_slow_sel[40] O
*P gpio_loopback_zero[40] I
*CAP
1 gpio_ib_mode_sel[40] 2.68003e-05
2 gpio_vtrip_sel[40] 3.45129e-05
3 gpio_out[40] 2.68003e-05
4 gpio_holdover[40] 2.04378e-05
5 gpio_dm2[40] 2.04378e-05
6 gpio_analog_sel[40] 3.45129e-05
7 gpio_analog_pol[40] 2.68003e-05
8 gpio_dm0[40] 2.04378e-05
9 gpio_analog_en[40] 3.45129e-05
10 gpio_dm1[40] 4.08755e-05
11 gpio_slow_sel[40] 0.000526873
12 gpio_loopback_zero[40] 0.00147045
13 *123:27 0.000897123
14 *123:25 0.000559012
15 *123:23 0.000410687
16 *123:21 0.000851406
17 *123:19 0.000788033
18 *123:17 0.000268517
19 *123:15 0.000253547
20 *123:13 0.000454518
21 *123:11 0.000477201
22 *123:9 0.00162129
23 gpio_analog_pol[40] gpio_inp_dis[40] 0
24 gpio_ib_mode_sel[40] gpio_oeb[40] 0
25 *123:9 gpio_inp_dis[40] 0.00015183
26 *123:9 *261:13 0.00037228
27 *123:11 gpio_inp_dis[40] 0.000181088
28 *123:13 gpio_inp_dis[40] 0.000517394
29 *123:15 gpio_inp_dis[40] 0.000155218
30 *123:17 gpio_inp_dis[40] 0.000181088
31 *123:19 gpio_inp_dis[40] 0.000181088
32 *123:21 gpio_inp_dis[40] 0.000686104
*RES
1 gpio_loopback_zero[40] *123:9 14.4823 
2 *123:9 *123:11 0.657067 
3 *123:11 *123:13 1.77333 
4 *123:13 *123:15 0.5712 
5 *123:15 *123:17 0.657067 
6 *123:17 *123:19 0.657067 
7 *123:19 *123:21 2.8896 
8 *123:21 *123:23 0.657067 
9 *123:23 *123:25 0.657067 
10 *123:25 *123:27 1.17227 
11 *123:27 gpio_slow_sel[40] 10.5501 
12 *123:27 gpio_dm1[40] 8.77679 
13 *123:25 gpio_analog_en[40] 8.77679 
14 *123:23 gpio_dm0[40] 8.77679 
15 *123:21 gpio_analog_pol[40] 8.77679 
16 *123:19 gpio_analog_sel[40] 8.77679 
17 *123:17 gpio_dm2[40] 8.77679 
18 *123:15 gpio_holdover[40] 8.77679 
19 *123:13 gpio_out[40] 8.77679 
20 *123:11 gpio_vtrip_sel[40] 8.77679 
21 *123:9 gpio_ib_mode_sel[40] 8.77679 
*END

*D_NET *124 0.0113945
*CONN
*P gpio_ib_mode_sel[41] O
*P gpio_vtrip_sel[41] O
*P gpio_out[41] O
*P gpio_holdover[41] O
*P gpio_dm2[41] O
*P gpio_analog_sel[41] O
*P gpio_analog_pol[41] O
*P gpio_dm0[41] O
*P gpio_analog_en[41] O
*P gpio_dm1[41] O
*P gpio_slow_sel[41] O
*P gpio_loopback_zero[41] I
*CAP
1 gpio_ib_mode_sel[41] 2.68003e-05
2 gpio_vtrip_sel[41] 3.45129e-05
3 gpio_out[41] 2.68003e-05
4 gpio_holdover[41] 2.04378e-05
5 gpio_dm2[41] 2.04378e-05
6 gpio_analog_sel[41] 3.45129e-05
7 gpio_analog_pol[41] 2.68003e-05
8 gpio_dm0[41] 2.04378e-05
9 gpio_analog_en[41] 3.45129e-05
10 gpio_dm1[41] 4.08755e-05
11 gpio_slow_sel[41] 0.000526873
12 gpio_loopback_zero[41] 0.00156107
13 *124:27 0.000897123
14 *124:25 0.000559012
15 *124:23 0.000410687
16 *124:21 0.000851406
17 *124:19 0.000788033
18 *124:17 0.000268517
19 *124:15 0.000253547
20 *124:13 0.000454518
21 *124:11 0.000477201
22 *124:9 0.00171191
23 gpio_analog_pol[41] gpio_inp_dis[41] 0
24 gpio_ib_mode_sel[41] gpio_oeb[41] 0
25 *124:9 gpio_inp_dis[41] 0.000203569
26 *124:9 *262:17 0.000242931
27 *124:11 gpio_inp_dis[41] 0.000181088
28 *124:13 gpio_inp_dis[41] 0.000517394
29 *124:15 gpio_inp_dis[41] 0.000155218
30 *124:17 gpio_inp_dis[41] 0.000181088
31 *124:19 gpio_inp_dis[41] 0.000181088
32 *124:21 gpio_inp_dis[41] 0.000686104
*RES
1 gpio_loopback_zero[41] *124:9 14.4645 
2 *124:9 *124:11 0.657067 
3 *124:11 *124:13 1.77333 
4 *124:13 *124:15 0.5712 
5 *124:15 *124:17 0.657067 
6 *124:17 *124:19 0.657067 
7 *124:19 *124:21 2.8896 
8 *124:21 *124:23 0.657067 
9 *124:23 *124:25 0.657067 
10 *124:25 *124:27 1.17227 
11 *124:27 gpio_slow_sel[41] 10.5501 
12 *124:27 gpio_dm1[41] 8.77679 
13 *124:25 gpio_analog_en[41] 8.77679 
14 *124:23 gpio_dm0[41] 8.77679 
15 *124:21 gpio_analog_pol[41] 8.77679 
16 *124:19 gpio_analog_sel[41] 8.77679 
17 *124:17 gpio_dm2[41] 8.77679 
18 *124:15 gpio_holdover[41] 8.77679 
19 *124:13 gpio_out[41] 8.77679 
20 *124:11 gpio_vtrip_sel[41] 8.77679 
21 *124:9 gpio_ib_mode_sel[41] 8.77679 
*END

*D_NET *125 0.0130791
*CONN
*P gpio_ib_mode_sel[42] O
*P gpio_vtrip_sel[42] O
*P gpio_out[42] O
*P gpio_holdover[42] O
*P gpio_dm2[42] O
*P gpio_analog_sel[42] O
*P gpio_analog_pol[42] O
*P gpio_dm0[42] O
*P gpio_analog_en[42] O
*P gpio_dm1[42] O
*P gpio_slow_sel[42] O
*P gpio_loopback_zero[42] I
*CAP
1 gpio_ib_mode_sel[42] 5.8458e-05
2 gpio_vtrip_sel[42] 6.61706e-05
3 gpio_out[42] 5.8458e-05
4 gpio_holdover[42] 4.15429e-05
5 gpio_dm2[42] 3.09903e-05
6 gpio_analog_sel[42] 6.53634e-05
7 gpio_analog_pol[42] 6.90106e-05
8 gpio_dm0[42] 2.04378e-05
9 gpio_analog_en[42] 0.000135822
10 gpio_dm1[42] 4.08755e-05
11 gpio_slow_sel[42] 0.000541363
12 gpio_loopback_zero[42] 0.00143028
13 *125:29 0.000926103
14 *125:27 0.000689301
15 *125:25 0.000450537
16 *125:21 0.000883031
17 *125:19 0.000796739
18 *125:17 0.000303417
19 *125:15 0.000296996
20 *125:13 0.000492259
21 *125:11 0.00051369
22 *125:9 0.00162332
23 gpio_analog_pol[42] gpio_inp_dis[42] 0
24 gpio_ib_mode_sel[42] gpio_oeb[42] 0
25 *125:9 gpio_inp_dis[42] 0.000322892
26 *125:9 *263:9 0.000639671
27 *125:11 gpio_inp_dis[42] 0.000322892
28 *125:13 gpio_inp_dis[42] 0.00093816
29 *125:15 gpio_inp_dis[42] 0.000275563
30 *125:17 gpio_inp_dis[42] 0.000322892
31 *125:19 gpio_inp_dis[42] 0.000226315
32 *125:21 gpio_inp_dis[42] 0.000487685
33 *125:25 gpio_inp_dis[42] 8.9031e-06
*RES
1 gpio_loopback_zero[42] *125:9 15.1819 
2 *125:9 *125:11 0.657067 
3 *125:11 *125:13 1.77333 
4 *125:13 *125:15 0.5712 
5 *125:15 *125:17 0.657067 
6 *125:17 *125:19 0.657067 
7 *125:19 *125:21 2.8896 
8 *125:21 *125:25 0.84 
9 *125:25 *125:27 0.657067 
10 *125:27 *125:29 1.17227 
11 *125:29 gpio_slow_sel[42] 10.5501 
12 *125:29 gpio_dm1[42] 8.77679 
13 *125:27 gpio_analog_en[42] 9.664 
14 *125:25 gpio_dm0[42] 8.77679 
15 *125:21 gpio_analog_pol[42] 9.48107 
16 *125:19 gpio_analog_sel[42] 9.48107 
17 *125:17 gpio_dm2[42] 9.48107 
18 *125:15 gpio_holdover[42] 9.48107 
19 *125:13 gpio_out[42] 9.48107 
20 *125:11 gpio_vtrip_sel[42] 9.48107 
21 *125:9 gpio_ib_mode_sel[42] 9.48107 
*END

*D_NET *126 0.0118741
*CONN
*P gpio_ib_mode_sel[43] O
*P gpio_out[43] O
*P gpio_holdover[43] O
*P gpio_dm2[43] O
*P gpio_analog_sel[43] O
*P gpio_analog_pol[43] O
*P gpio_dm0[43] O
*P gpio_analog_en[43] O
*P gpio_dm1[43] O
*P gpio_slow_sel[43] O
*P gpio_vtrip_sel[43] O
*P gpio_loopback_zero[43] I
*CAP
1 gpio_ib_mode_sel[43] 4.20764e-06
2 gpio_out[43] 2.68003e-05
3 gpio_holdover[43] 2.04378e-05
4 gpio_dm2[43] 2.04378e-05
5 gpio_analog_sel[43] 3.45129e-05
6 gpio_analog_pol[43] 2.68003e-05
7 gpio_dm0[43] 2.04378e-05
8 gpio_analog_en[43] 3.45129e-05
9 gpio_dm1[43] 4.08755e-05
10 gpio_slow_sel[43] 0.000526873
11 gpio_vtrip_sel[43] 2.51518e-05
12 gpio_loopback_zero[43] 0.00163909
13 *126:53 0.000897123
14 *126:51 0.000559012
15 *126:49 0.000410687
16 *126:47 0.000851406
17 *126:45 0.000788033
18 *126:43 0.000268517
19 *126:41 0.000253547
20 *126:39 0.000464336
21 *126:29 0.000535737
22 *126:19 0.00182541
23 gpio_analog_pol[43] gpio_inp_dis[43] 0
24 *126:19 gpio_inp_dis[43] 0.000358698
25 *126:19 gpio_oeb[43] 0
26 *126:19 *264:13 0.000520611
27 *126:39 gpio_inp_dis[43] 0.000517394
28 *126:41 gpio_inp_dis[43] 0.000155218
29 *126:43 gpio_inp_dis[43] 0.000181088
30 *126:45 gpio_inp_dis[43] 0.000181088
31 *126:47 gpio_inp_dis[43] 0.000686104
*RES
1 gpio_loopback_zero[43] *126:19 25.8301 
2 *126:19 *126:29 5.46857 
3 *126:29 gpio_vtrip_sel[43] 0.776786 
4 *126:29 *126:39 9.77333 
5 *126:39 *126:41 0.5712 
6 *126:41 *126:43 0.657067 
7 *126:43 *126:45 0.657067 
8 *126:45 *126:47 2.8896 
9 *126:47 *126:49 0.657067 
10 *126:49 *126:51 0.657067 
11 *126:51 *126:53 1.17227 
12 *126:53 gpio_slow_sel[43] 10.5501 
13 *126:53 gpio_dm1[43] 8.77679 
14 *126:51 gpio_analog_en[43] 8.77679 
15 *126:49 gpio_dm0[43] 8.77679 
16 *126:47 gpio_analog_pol[43] 8.77679 
17 *126:45 gpio_analog_sel[43] 8.77679 
18 *126:43 gpio_dm2[43] 8.77679 
19 *126:41 gpio_holdover[43] 8.77679 
20 *126:39 gpio_out[43] 8.77679 
21 *126:19 gpio_ib_mode_sel[43] 0.776786 
*END

*D_NET *127 0.0126471
*CONN
*P gpio_oeb[4] O
*P gpio_ib_mode_sel[4] O
*P gpio_vtrip_sel[4] O
*P gpio_holdover[4] O
*P gpio_analog_sel[4] O
*P gpio_analog_pol[4] O
*P gpio_dm0[4] O
*P gpio_analog_en[4] O
*P gpio_slow_sel[4] O
*P gpio_loopback_zero[4] I
*CAP
1 gpio_oeb[4] 3.24618e-05
2 gpio_ib_mode_sel[4] 2.46444e-05
3 gpio_vtrip_sel[4] 4.09061e-05
4 gpio_holdover[4] 8.46418e-05
5 gpio_analog_sel[4] 8.49526e-05
6 gpio_analog_pol[4] 6.03964e-05
7 gpio_dm0[4] 4.52021e-05
8 gpio_analog_en[4] 8.0513e-05
9 gpio_slow_sel[4] 0.000757294
10 gpio_loopback_zero[4] 0.00114116
11 *127:29 0.000988716
12 *127:27 0.000345033
13 *127:25 0.000707526
14 *127:23 0.000869366
15 *127:21 0.00081673
16 *127:15 0.0006499
17 *127:11 0.000362229
18 *127:9 0.00134809
19 gpio_analog_en[4] gpio_dm1[4] 0
20 gpio_analog_pol[4] gpio_inp_dis[4] 2.54581e-05
21 gpio_analog_sel[4] gpio_dm2[4] 2.00158e-05
22 gpio_holdover[4] gpio_dm2[4] 1.89257e-05
23 gpio_holdover[4] gpio_out[4] 2.62729e-05
24 gpio_slow_sel[4] gpio_dm1[4] 0.000489022
25 *127:9 *151:9 0.000311873
26 *127:21 *151:9 0.000943591
27 *127:23 *151:9 0.000305903
28 *127:23 *151:11 0.000266291
29 *127:25 gpio_dm1[4] 0.000210482
30 *127:25 *151:11 0.00103142
31 *127:27 gpio_dm1[4] 0.000279045
32 *127:29 gpio_dm1[4] 0.000279045
*RES
1 gpio_loopback_zero[4] *127:9 32.3822 
2 *127:9 *127:11 3.48 
3 *127:11 *127:15 11.48 
4 *127:15 *127:21 10.3343 
5 *127:21 *127:23 1.32533 
6 *127:23 *127:25 2.84853 
7 *127:25 *127:27 0.690667 
8 *127:27 *127:29 0.690667 
9 *127:29 gpio_slow_sel[4] 11.1612 
10 *127:29 gpio_analog_en[4] 8.35187 
11 *127:27 gpio_dm0[4] 8.31827 
12 *127:25 gpio_analog_pol[4] 8.3388 
13 *127:23 gpio_analog_sel[4] 8.32573 
14 *127:21 gpio_holdover[4] 8.36493 
15 *127:15 gpio_vtrip_sel[4] 0.1568 
16 *127:11 gpio_ib_mode_sel[4] 8.1568 
17 *127:9 gpio_oeb[4] 8.1568 
*END

*D_NET *128 0.0119917
*CONN
*P gpio_oeb[5] O
*P gpio_ib_mode_sel[5] O
*P gpio_vtrip_sel[5] O
*P gpio_holdover[5] O
*P gpio_analog_sel[5] O
*P gpio_dm0[5] O
*P gpio_slow_sel[5] O
*P gpio_analog_en[5] O
*P gpio_analog_pol[5] O
*P gpio_loopback_zero[5] I
*CAP
1 gpio_oeb[5] 2.37115e-05
2 gpio_ib_mode_sel[5] 1.80579e-05
3 gpio_vtrip_sel[5] 3.8393e-05
4 gpio_holdover[5] 4.82375e-05
5 gpio_analog_sel[5] 5.77842e-05
6 gpio_dm0[5] 0.000116797
7 gpio_slow_sel[5] 0.000800432
8 gpio_analog_en[5] 7.41745e-05
9 gpio_analog_pol[5] 0.000210917
10 gpio_loopback_zero[5] 0.0010552
11 *128:63 0.000975424
12 *128:61 0.000440403
13 *128:43 0.00106057
14 *128:33 0.00101354
15 *128:31 0.000969155
16 *128:29 0.000793529
17 *128:27 0.000355642
18 *128:25 0.000269258
19 *128:21 0.00112628
20 gpio_analog_en[5] gpio_dm1[5] 3.11196e-05
21 gpio_analog_pol[5] gpio_inp_dis[5] 1.93441e-05
22 gpio_analog_sel[5] gpio_dm2[5] 1.30913e-05
23 gpio_holdover[5] gpio_out[5] 2.16353e-05
24 gpio_holdover[5] *152:13 1.30444e-06
25 gpio_holdover[5] *152:27 1.44027e-05
26 gpio_slow_sel[5] gpio_dm1[5] 0.000370222
27 *128:21 *152:13 0.00060844
28 *128:43 gpio_dm1[5] 0.000253389
29 *128:43 *152:27 0.000829841
30 *128:61 gpio_dm1[5] 0.000381412
*RES
1 gpio_loopback_zero[5] *128:21 44.0481 
2 *128:21 *128:25 9.18589 
3 *128:25 *128:27 3.48 
4 *128:27 *128:29 3.48 
5 *128:29 *128:31 12.5321 
6 *128:31 *128:33 6.815 
7 *128:33 *128:43 20.8613 
8 *128:43 gpio_analog_pol[5] 8.5992 
9 *128:43 *128:61 17.0015 
10 *128:61 *128:63 2.11804 
11 *128:63 gpio_analog_en[5] 8.1568 
12 *128:63 gpio_slow_sel[5] 25.2668 
13 *128:61 gpio_dm0[5] 9.66376 
14 *128:33 gpio_analog_sel[5] 8.1568 
15 *128:31 gpio_holdover[5] 8.1568 
16 *128:29 gpio_vtrip_sel[5] 8.1568 
17 *128:27 gpio_ib_mode_sel[5] 8.1568 
18 *128:25 gpio_oeb[5] 8.1568 
*END

*D_NET *129 0.0115275
*CONN
*P gpio_ib_mode_sel[6] O
*P gpio_vtrip_sel[6] O
*P gpio_holdover[6] O
*P gpio_analog_sel[6] O
*P gpio_analog_pol[6] O
*P gpio_dm0[6] O
*P gpio_analog_en[6] O
*P gpio_slow_sel[6] O
*P gpio_oeb[6] O
*P gpio_loopback_zero[6] I
*CAP
1 gpio_ib_mode_sel[6] 1.80579e-05
2 gpio_vtrip_sel[6] 7.84662e-05
3 gpio_holdover[6] 3.5202e-05
4 gpio_analog_sel[6] 3.61866e-05
5 gpio_analog_pol[6] 1.67349e-05
6 gpio_dm0[6] 1.80579e-05
7 gpio_analog_en[6] 3.8393e-05
8 gpio_slow_sel[6] 0.000764601
9 gpio_oeb[6] 8.75721e-05
10 gpio_loopback_zero[6] 0.00123542
11 *129:57 0.000977466
12 *129:55 0.000367002
13 *129:53 0.000826255
14 *129:35 0.00100013
15 *129:33 0.00092769
16 *129:31 0.000833602
17 *129:29 0.000372713
18 *129:17 0.00148611
19 gpio_analog_en[6] gpio_dm1[6] 0
20 gpio_analog_pol[6] gpio_inp_dis[6] 1.53391e-05
21 gpio_analog_sel[6] gpio_dm2[6] 1.78301e-05
22 gpio_holdover[6] gpio_dm2[6] 1.78301e-05
23 gpio_holdover[6] gpio_out[6] 2.16353e-05
24 *129:17 *153:9 0.000961556
25 *129:33 *153:9 0.000207907
26 *129:53 gpio_dm1[6] 0.000190707
27 *129:53 gpio_inp_dis[6] 1.08303e-05
28 *129:53 *153:11 0.000964198
*RES
1 gpio_loopback_zero[6] *129:17 29.9895 
2 *129:17 gpio_oeb[6] 8.8641 
3 *129:17 *129:29 3.48 
4 *129:29 *129:31 3.76482 
5 *129:31 *129:33 12.2473 
6 *129:33 *129:35 6.815 
7 *129:35 *129:53 36.719 
8 *129:53 *129:55 3.48 
9 *129:55 *129:57 3.48 
10 *129:57 gpio_slow_sel[6] 24.0239 
11 *129:57 gpio_analog_en[6] 8.1568 
12 *129:55 gpio_dm0[6] 8.1568 
13 *129:53 gpio_analog_pol[6] 8.1568 
14 *129:35 gpio_analog_sel[6] 8.1568 
15 *129:33 gpio_holdover[6] 8.1568 
16 *129:31 gpio_vtrip_sel[6] 8.406 
17 *129:29 gpio_ib_mode_sel[6] 8.1568 
*END

*D_NET *130 0.0125235
*CONN
*P gpio_oeb[7] O
*P gpio_ib_mode_sel[7] O
*P gpio_vtrip_sel[7] O
*P gpio_holdover[7] O
*P gpio_analog_sel[7] O
*P gpio_analog_pol[7] O
*P gpio_dm0[7] O
*P gpio_analog_en[7] O
*P gpio_slow_sel[7] O
*P gpio_loopback_zero[7] I
*CAP
1 gpio_oeb[7] 3.15899e-05
2 gpio_ib_mode_sel[7] 2.63332e-05
3 gpio_vtrip_sel[7] 4.95062e-05
4 gpio_holdover[7] 5.18275e-05
5 gpio_analog_sel[7] 5.97072e-05
6 gpio_analog_pol[7] 3.56953e-05
7 gpio_dm0[7] 2.63332e-05
8 gpio_analog_en[7] 2.99076e-05
9 gpio_slow_sel[7] 0.000887363
10 gpio_loopback_zero[7] 0.00112218
11 *130:35 0.00109174
12 *130:33 0.000363918
13 *130:31 0.00092255
14 *130:29 0.00111234
15 *130:27 0.000961385
16 *130:25 0.000804642
17 *130:23 0.000363918
18 *130:21 0.00131688
19 gpio_analog_pol[7] gpio_inp_dis[7] 1.83467e-05
20 gpio_analog_sel[7] gpio_dm2[7] 1.50156e-05
21 gpio_holdover[7] gpio_dm2[7] 1.50156e-05
22 gpio_holdover[7] gpio_out[7] 1.83467e-05
23 gpio_slow_sel[7] *285:9 0.00106514
24 *130:21 *154:9 0.000876201
25 *130:21 *285:9 0.000586961
26 *130:27 *285:9 0.000277518
27 *130:31 *285:9 0.000393165
*RES
1 gpio_loopback_zero[7] *130:21 29.9487 
2 *130:21 *130:23 3.48 
3 *130:23 *130:25 3.48 
4 *130:25 *130:27 12.5321 
5 *130:27 *130:29 6.815 
6 *130:29 *130:31 15.8671 
7 *130:31 *130:33 3.48 
8 *130:33 *130:35 3.48 
9 *130:35 gpio_slow_sel[7] 28.9081 
10 *130:35 gpio_analog_en[7] 8.1568 
11 *130:33 gpio_dm0[7] 8.1568 
12 *130:31 gpio_analog_pol[7] 8.1568 
13 *130:29 gpio_analog_sel[7] 8.1568 
14 *130:27 gpio_holdover[7] 8.1568 
15 *130:25 gpio_vtrip_sel[7] 8.1568 
16 *130:23 gpio_ib_mode_sel[7] 8.1568 
17 *130:21 gpio_oeb[7] 8.1568 
*END

*D_NET *131 0.0127376
*CONN
*P gpio_oeb[8] O
*P gpio_ib_mode_sel[8] O
*P gpio_vtrip_sel[8] O
*P gpio_holdover[8] O
*P gpio_dm0[8] O
*P gpio_analog_en[8] O
*P gpio_slow_sel[8] O
*P gpio_analog_pol[8] O
*P gpio_analog_sel[8] O
*P gpio_loopback_zero[8] I
*CAP
1 gpio_oeb[8] 3.24618e-05
2 gpio_ib_mode_sel[8] 1.80579e-05
3 gpio_vtrip_sel[8] 3.8393e-05
4 gpio_holdover[8] 5.09327e-05
5 gpio_dm0[8] 3.44753e-05
6 gpio_analog_en[8] 0.000114133
7 gpio_slow_sel[8] 0.000544896
8 gpio_analog_pol[8] 8.14215e-05
9 gpio_analog_sel[8] 6.35277e-05
10 gpio_loopback_zero[8] 0.0010295
11 *131:63 0.000791174
12 *131:57 0.00032075
13 *131:43 0.000857806
14 *131:27 0.00101083
15 *131:23 0.000968002
16 *131:21 0.000804889
17 *131:19 0.000367002
18 *131:17 0.00123643
19 gpio_analog_en[8] gpio_dm1[8] 0
20 gpio_analog_pol[8] gpio_inp_dis[8] 1.93441e-05
21 gpio_holdover[8] gpio_dm2[8] 1.50156e-05
22 gpio_holdover[8] gpio_out[8] 2.09463e-05
23 gpio_slow_sel[8] gpio_dm1[8] 0.000510535
24 gpio_slow_sel[8] *285:9 0.0012503
25 *131:17 *286:17 0.000467796
26 *131:23 *286:17 0.000207907
27 *131:43 gpio_dm2[8] 1.17237e-05
28 *131:43 *285:9 0.00128107
29 *131:63 gpio_dm1[8] 0.000287663
30 *131:63 *285:9 0.000300638
*RES
1 gpio_loopback_zero[8] *131:17 29.0372 
2 *131:17 *131:19 3.48 
3 *131:19 *131:21 3.48 
4 *131:21 *131:23 12.5321 
5 *131:23 *131:27 14.5612 
6 *131:27 gpio_analog_sel[8] 0.258533 
7 *131:27 *131:43 19.1603 
8 *131:43 gpio_analog_pol[8] 0.5236 
9 *131:43 *131:57 0.791467 
10 *131:57 *131:63 8.938 
11 *131:63 gpio_slow_sel[8] 11.2611 
12 *131:63 gpio_analog_en[8] 8.37147 
13 *131:57 gpio_dm0[8] 0.308933 
14 *131:23 gpio_holdover[8] 8.1568 
15 *131:21 gpio_vtrip_sel[8] 8.1568 
16 *131:19 gpio_ib_mode_sel[8] 8.1568 
17 *131:17 gpio_oeb[8] 8.1568 
*END

*D_NET *132 0.0140644
*CONN
*P gpio_oeb[9] O
*P gpio_ib_mode_sel[9] O
*P gpio_vtrip_sel[9] O
*P gpio_holdover[9] O
*P gpio_analog_sel[9] O
*P gpio_analog_pol[9] O
*P gpio_dm0[9] O
*P gpio_analog_en[9] O
*P gpio_slow_sel[9] O
*P gpio_loopback_zero[9] I
*CAP
1 gpio_oeb[9] 0.000107079
2 gpio_ib_mode_sel[9] 6.29019e-05
3 gpio_vtrip_sel[9] 0.000113011
4 gpio_holdover[9] 0.000137775
5 gpio_analog_sel[9] 8.01728e-05
6 gpio_analog_pol[9] 8.99469e-05
7 gpio_dm0[9] 7.91904e-05
8 gpio_analog_en[9] 0.00012123
9 gpio_slow_sel[9] 0.000627348
10 gpio_loopback_zero[9] 0.000913696
11 *132:31 0.000844262
12 *132:27 0.000273008
13 *132:23 0.000691911
14 *132:19 0.000796113
15 *132:15 0.000705182
16 *132:13 0.00062006
17 *132:11 0.000366406
18 *132:9 0.00117253
19 gpio_analog_en[9] gpio_dm1[9] 0
20 gpio_analog_pol[9] gpio_inp_dis[9] 1.83467e-05
21 gpio_analog_sel[9] gpio_dm2[9] 1.50156e-05
22 gpio_analog_sel[9] *156:21 1.30466e-05
23 gpio_holdover[9] gpio_dm2[9] 1.50156e-05
24 gpio_holdover[9] gpio_out[9] 4.13233e-05
25 gpio_slow_sel[9] *286:17 0.000621842
26 *132:9 gpio_out[10] 0.00110748
27 *132:9 *156:21 0.000383683
28 *132:11 *156:21 0.000273004
29 *132:13 *156:21 0.000273004
30 *132:15 *156:21 0.000984094
31 *132:15 *286:17 0.000220879
32 *132:19 *156:21 0.000291417
33 *132:19 *286:17 0.000553166
34 *132:23 *156:25 0.000393165
35 *132:23 *286:17 0.000738261
36 *132:27 *286:17 0.000159929
37 *132:31 *286:17 0.000159929
*RES
1 gpio_loopback_zero[9] *132:9 12.2075 
2 *132:9 *132:11 0.657067 
3 *132:11 *132:13 0.657067 
4 *132:13 *132:15 2.28853 
5 *132:15 *132:19 1.48587 
6 *132:19 *132:23 3.09773 
7 *132:23 *132:27 0.746667 
8 *132:27 *132:31 0.746667 
9 *132:31 gpio_slow_sel[9] 27.9922 
10 *132:31 gpio_analog_en[9] 8.53107 
11 *132:27 gpio_dm0[9] 8.49747 
12 *132:23 gpio_analog_pol[9] 8.46387 
13 *132:19 gpio_analog_sel[9] 8.25573 
14 *132:15 gpio_holdover[9] 8.37147 
15 *132:13 gpio_vtrip_sel[9] 8.37147 
16 *132:11 gpio_ib_mode_sel[9] 8.37147 
17 *132:9 gpio_oeb[9] 8.37147 
*END

*D_NET *133 0.00848166
*CONN
*P gpio_dm0[0] O
*P gpio_oeb[0] O
*P gpio_loopback_one[0] I
*CAP
1 gpio_dm0[0] 0.00224266
2 gpio_oeb[0] 0.000217774
3 gpio_loopback_one[0] 0.000832834
4 *133:13 0.00329327
5 gpio_analog_en[0] gpio_dm0[0] 2.07427e-05
6 gpio_analog_pol[0] gpio_dm0[0] 2.07427e-05
7 gpio_ib_mode_sel[0] gpio_oeb[0] 1.89979e-05
8 gpio_ib_mode_sel[0] *133:13 4.96584e-06
9 gpio_inp_dis[0] gpio_dm0[0] 1.4123e-05
10 *89:13 gpio_dm0[0] 0.000208992
11 *89:13 gpio_oeb[0] 2.63406e-05
12 *89:13 *133:13 0.000363856
13 *89:23 gpio_dm0[0] 0.000107127
14 *89:35 gpio_dm0[0] 0.000277518
15 *89:49 gpio_dm0[0] 0.000831712
*RES
1 gpio_loopback_one[0] *133:13 33.0136 
2 *133:13 gpio_oeb[0] 0.8036 
3 *133:13 gpio_dm0[0] 47.55 
*END

*D_NET *134 0.009941
*CONN
*P gpio_out[1] O
*P gpio_dm2[1] O
*P gpio_dm0[1] O
*P gpio_dm1[1] O
*P gpio_loopback_one[1] I
*CAP
1 gpio_out[1] 0.000142974
2 gpio_dm2[1] 0.000102844
3 gpio_dm0[1] 0.000128794
4 gpio_dm1[1] 0.000573237
5 gpio_loopback_one[1] 0.00149115
6 *134:13 0.00183032
7 *134:11 0.00154686
8 *134:9 0.00194985
9 gpio_analog_en[1] gpio_dm0[1] 1.50156e-05
10 gpio_analog_en[1] gpio_dm1[1] 0
11 gpio_analog_pol[1] gpio_dm0[1] 1.78301e-05
12 gpio_analog_sel[1] gpio_dm2[1] 1.78301e-05
13 gpio_holdover[1] gpio_dm2[1] 1.27275e-05
14 gpio_holdover[1] gpio_out[1] 1.83467e-05
15 gpio_slow_sel[1] gpio_dm0[1] 2.88858e-06
16 gpio_slow_sel[1] gpio_dm1[1] 0.000494728
17 *100:9 *134:9 0.0003292
18 *100:27 gpio_dm2[1] 1.01674e-05
19 *100:27 gpio_out[1] 7.3716e-06
20 *100:27 *134:9 0.000712258
21 *100:27 *134:11 0.000242062
22 *100:33 *134:13 0.000294545
*RES
1 gpio_loopback_one[1] *134:9 14.006 
2 *134:9 *134:11 1.17227 
3 *134:11 *134:13 4.09173 
4 *134:13 gpio_dm1[1] 10.1448 
5 *134:13 gpio_dm0[1] 8.37147 
6 *134:11 gpio_dm2[1] 8.37147 
7 *134:9 gpio_out[1] 8.37147 
*END

*D_NET *135 0.00969018
*CONN
*P gpio_dm2[10] O
*P gpio_dm1[10] O
*P gpio_inp_dis[10] O
*P gpio_loopback_one[10] I
*CAP
1 gpio_dm2[10] 7.46309e-05
2 gpio_dm1[10] 0.000822684
3 gpio_inp_dis[10] 5.78586e-05
4 gpio_loopback_one[10] 0.0015651
5 *135:29 0.00161639
6 *135:23 0.00237558
7 gpio_dm1[10] gpio_out[10] 0.000287872
8 *135:23 gpio_out[10] 0.000495373
9 gpio_analog_en[10] gpio_dm1[10] 0
10 gpio_analog_pol[10] gpio_inp_dis[10] 1.5186e-05
11 gpio_analog_sel[10] gpio_dm2[10] 1.02521e-05
12 gpio_slow_sel[10] gpio_dm1[10] 0
13 *90:13 *135:23 0.000550537
14 *90:31 *135:23 0.000277518
15 *90:41 gpio_dm2[10] 1.16525e-05
16 *90:41 *135:23 0.000286442
17 *90:45 gpio_dm1[10] 0.00027289
18 *90:45 *135:23 0
19 *90:45 *135:29 0.000393165
20 *90:47 gpio_dm1[10] 0.000288894
21 *90:51 gpio_dm1[10] 0.000288154
*RES
1 gpio_loopback_one[10] *135:23 40.6877 
2 *135:23 *135:29 32.0691 
3 *135:29 gpio_inp_dis[10] 0.262267 
4 *135:29 gpio_dm1[10] 19.6801 
5 *135:23 gpio_dm2[10] 0.1568 
*END

*D_NET *136 0.00901229
*CONN
*P gpio_dm2[11] O
*P gpio_inp_dis[11] O
*P gpio_dm1[11] O
*P gpio_loopback_one[11] I
*CAP
1 gpio_dm2[11] 0.000123018
2 gpio_inp_dis[11] 0.000170098
3 gpio_dm1[11] 0.000958963
4 gpio_loopback_one[11] 0.00180011
5 *136:11 0.00175482
6 *136:9 0.00254889
7 gpio_dm2[11] gpio_out[11] 0
8 gpio_analog_en[11] gpio_dm1[11] 0
9 gpio_analog_pol[11] gpio_inp_dis[11] 1.83467e-05
10 gpio_analog_sel[11] gpio_dm2[11] 1.78301e-05
11 gpio_holdover[11] gpio_dm2[11] 1.78301e-05
12 *91:9 *136:9 0.000207907
13 *91:15 *136:9 0.000207907
14 *91:31 gpio_dm1[11] 0.000242277
15 *91:31 gpio_inp_dis[11] 7.3716e-06
16 *91:31 *136:11 0.000936921
*RES
1 gpio_loopback_one[11] *136:9 14.1899 
2 *136:9 *136:11 2.97547 
3 *136:11 gpio_dm1[11] 11.2611 
4 *136:11 gpio_inp_dis[11] 8.37147 
5 *136:9 gpio_dm2[11] 8.37147 
*END

*D_NET *137 0.00996413
*CONN
*P gpio_dm2[12] O
*P gpio_inp_dis[12] O
*P gpio_dm1[12] O
*P gpio_loopback_one[12] I
*CAP
1 gpio_dm2[12] 0.000137923
2 gpio_inp_dis[12] 0.000148449
3 gpio_dm1[12] 0.00063987
4 gpio_loopback_one[12] 0.00136749
5 *137:11 0.00130012
6 *137:9 0.00201721
7 gpio_analog_en[12] gpio_dm1[12] 0
8 gpio_analog_pol[12] gpio_inp_dis[12] 2.05329e-05
9 gpio_analog_sel[12] gpio_dm2[12] 2.12019e-05
10 gpio_holdover[12] gpio_dm2[12] 2.04713e-05
11 gpio_slow_sel[12] gpio_dm1[12] 0.000574962
12 *92:9 *137:9 0.000225234
13 *92:19 *137:9 0.000247447
14 *92:21 *137:9 0.000997268
15 *92:23 *137:9 0.000272919
16 *92:23 *137:11 0.000236161
17 *92:25 gpio_dm1[12] 0.000236161
18 *92:25 *137:11 0.00105425
19 *92:27 gpio_dm1[12] 0.000223236
20 *92:29 gpio_dm1[12] 0.000223236
*RES
1 gpio_loopback_one[12] *137:9 14.1899 
2 *137:9 *137:11 2.97547 
3 *137:11 gpio_dm1[12] 11.2611 
4 *137:11 gpio_inp_dis[12] 8.37147 
5 *137:9 gpio_dm2[12] 8.37147 
*END

*D_NET *138 0.0142232
*CONN
*P gpio_dm1[24] O
*P gpio_inp_dis[24] O
*P gpio_dm2[24] O
*P gpio_loopback_one[24] I
*CAP
1 gpio_dm1[24] 0.000643818
2 gpio_inp_dis[24] 6.3166e-05
3 gpio_dm2[24] 0.000150962
4 gpio_loopback_one[24] 0.00149735
5 *138:39 0.0016148
6 *138:15 0.00255613
7 *138:15 *268:17 0.00355991
8 gpio_analog_en[24] gpio_dm1[24] 0
9 gpio_analog_pol[24] gpio_inp_dis[24] 2.16266e-05
10 gpio_analog_sel[24] gpio_dm2[24] 1.3094e-05
11 gpio_dm0[24] gpio_inp_dis[24] 0
12 gpio_holdover[24] gpio_dm2[24] 1.87463e-05
13 gpio_slow_sel[24] gpio_dm1[24] 0.00016738
14 *105:19 *138:15 0.00280981
15 *105:55 *138:15 0.000241999
16 *105:71 gpio_dm2[24] 7.18895e-06
17 *105:71 *138:15 0.000116034
18 *105:71 *138:39 0.00018859
19 *105:75 gpio_dm1[24] 0.000117858
20 *105:75 *138:39 0.000161338
21 *105:85 gpio_dm1[24] 0.000139873
22 *105:87 gpio_dm1[24] 0.000133537
*RES
1 gpio_loopback_one[24] *138:15 18.6848 
2 *138:15 gpio_dm2[24] 25.2479 
3 *138:15 *138:39 11.5681 
4 *138:39 gpio_inp_dis[24] 0.371467 
5 *138:39 gpio_dm1[24] 33.1218 
*END

*D_NET *139 0.0137107
*CONN
*P gpio_dm1[25] O
*P gpio_inp_dis[25] O
*P gpio_dm2[25] O
*P gpio_loopback_one[25] I
*CAP
1 gpio_dm1[25] 0.00100598
2 gpio_inp_dis[25] 5.89434e-05
3 gpio_dm2[25] 4.05922e-05
4 gpio_loopback_one[25] 0.0022657
5 *139:29 0.00182858
6 *139:17 0.00306995
7 *139:17 *268:17 0.000805263
8 *139:29 *268:17 0.000370035
9 gpio_analog_en[25] gpio_dm1[25] 0
10 gpio_analog_pol[25] gpio_dm1[25] 2.40097e-05
11 gpio_analog_pol[25] gpio_inp_dis[25] 1.83293e-05
12 gpio_analog_sel[25] gpio_dm2[25] 1.50005e-05
13 gpio_holdover[25] gpio_dm2[25] 1.21257e-05
14 gpio_holdover[25] *139:17 5.34147e-06
15 gpio_slow_sel[25] gpio_dm1[25] 0.000506399
16 *106:13 *139:17 0.00268224
17 *106:53 *139:17 0.000223352
18 *106:63 gpio_dm1[25] 0.000232887
19 *106:73 gpio_dm1[25] 0.000273004
20 *106:83 gpio_dm1[25] 0.000273004
*RES
1 gpio_loopback_one[25] *139:17 36.1521 
2 *139:17 gpio_dm2[25] 8.1568 
3 *139:17 *139:29 24.3436 
4 *139:29 gpio_inp_dis[25] 0.1568 
5 *139:29 gpio_dm1[25] 19.8752 
*END

*D_NET *140 0.0137179
*CONN
*P gpio_dm1[26] O
*P gpio_inp_dis[26] O
*P gpio_dm2[26] O
*P gpio_loopback_one[26] I
*CAP
1 gpio_dm1[26] 0.000892416
2 gpio_inp_dis[26] 0.000312307
3 gpio_dm2[26] 0.000309987
4 gpio_loopback_one[26] 0.00200738
5 *140:27 0.00175867
6 *140:13 0.00287131
7 *140:13 *268:9 0.00108987
8 *140:13 *270:17 0.00160602
9 gpio_analog_pol[26] gpio_inp_dis[26] 1.5186e-05
10 gpio_analog_sel[26] gpio_dm2[26] 2.88035e-05
11 gpio_holdover[26] gpio_dm2[26] 2.864e-05
12 gpio_slow_sel[26] gpio_dm1[26] 0.000273772
13 *107:57 *140:13 0.00122262
14 *107:67 *140:13 0.00015955
15 *107:67 *140:27 0.000136696
16 *107:77 gpio_dm1[26] 0.000266101
17 *107:77 *140:27 0.000588516
18 *107:101 gpio_dm1[26] 0.000150029
*RES
1 gpio_loopback_one[26] *140:13 18.7893 
2 *140:13 gpio_dm2[26] 8.83907 
3 *140:13 *140:27 2.97547 
4 *140:27 gpio_inp_dis[26] 8.83907 
5 *140:27 gpio_dm1[26] 11.7044 
*END

*D_NET *141 0.0156265
*CONN
*P gpio_dm1[27] O
*P gpio_inp_dis[27] O
*P gpio_dm2[27] O
*P gpio_loopback_one[27] I
*CAP
1 gpio_dm1[27] 0.000762873
2 gpio_inp_dis[27] 0.000227402
3 gpio_dm2[27] 0.000171463
4 gpio_loopback_one[27] 0.001879
5 *141:19 0.00147182
6 *141:9 0.00253201
7 gpio_dm1[27] *268:9 0.00014399
8 gpio_dm1[27] *270:17 0.0012362
9 gpio_dm2[27] *269:15 0.000226134
10 *141:9 *268:9 0.000495572
11 *141:9 *269:9 0.000794024
12 *141:9 *270:17 0.00422337
13 *141:19 *268:9 0.000148354
14 *141:19 *270:17 0.00127631
15 gpio_analog_pol[27] gpio_inp_dis[27] 1.6303e-05
16 gpio_analog_sel[27] gpio_dm2[27] 1.3094e-05
17 gpio_slow_sel[27] gpio_dm1[27] 8.54524e-06
*RES
1 gpio_loopback_one[27] *141:9 18.2956 
2 *141:9 gpio_dm2[27] 8.5432 
3 *141:9 *141:19 2.97547 
4 *141:19 gpio_inp_dis[27] 8.5432 
5 *141:19 gpio_dm1[27] 11.4328 
*END

*D_NET *142 0.0149546
*CONN
*P gpio_inp_dis[28] O
*P gpio_dm1[28] O
*P gpio_dm2[28] O
*P gpio_loopback_one[28] I
*CAP
1 gpio_inp_dis[28] 8.01294e-05
2 gpio_dm1[28] 0.000621427
3 gpio_dm2[28] 0.000300132
4 gpio_loopback_one[28] 0.0021126
5 *142:31 0.00143186
6 *142:13 0.00314304
7 gpio_dm1[28] *269:9 0
8 *142:13 *268:9 0.000593664
9 *142:13 *269:9 0.00065361
10 *142:13 *270:9 0.00105538
11 *142:13 *270:17 0.000245645
12 *142:13 *272:17 0.00137318
13 *142:13 *277:9 0
14 *142:31 *268:9 0.000180992
15 *142:31 *269:9 0.000395734
16 gpio_analog_en[28] gpio_dm1[28] 0
17 gpio_analog_pol[28] gpio_dm1[28] 1.39654e-05
18 gpio_analog_pol[28] gpio_inp_dis[28] 1.07019e-05
19 gpio_analog_pol[28] *142:31 1.59657e-05
20 gpio_analog_sel[28] gpio_dm2[28] 5.39889e-05
21 gpio_holdover[28] gpio_dm2[28] 1.3094e-05
22 gpio_slow_sel[28] gpio_dm1[28] 0.000485405
23 *109:49 gpio_dm2[28] 3.53804e-05
24 *109:49 *142:13 0.000299212
25 *109:49 *142:31 0.000232703
26 *109:63 *142:31 0.0010849
27 *109:73 gpio_dm1[28] 0.000266195
28 *109:83 gpio_dm1[28] 0.000255651
*RES
1 gpio_loopback_one[28] *142:13 18.4421 
2 *142:13 gpio_dm2[28] 8.8764 
3 *142:13 *142:31 11.5467 
4 *142:31 gpio_dm1[28] 31.8484 
5 *142:31 gpio_inp_dis[28] 0.3052 
*END

*D_NET *143 0.0180023
*CONN
*P gpio_dm1[29] O
*P gpio_inp_dis[29] O
*P gpio_dm2[29] O
*P gpio_loopback_one[29] I
*CAP
1 gpio_dm1[29] 0.000794107
2 gpio_inp_dis[29] 0.000249842
3 gpio_dm2[29] 0.000268789
4 gpio_loopback_one[29] 0.00194058
5 *143:31 0.00172352
6 *143:13 0.00288894
7 gpio_dm1[29] *268:9 0.00014399
8 gpio_dm1[29] *269:9 0.00014399
9 gpio_dm1[29] *270:9 0.000283061
10 gpio_dm1[29] *277:9 0
11 *143:13 *268:9 0.000555596
12 *143:13 *269:9 0.000599697
13 *143:13 *270:9 0.00083296
14 *143:13 *271:9 0.00109646
15 *143:13 *273:9 0.0019089
16 *143:13 *277:9 0
17 *143:31 *268:9 0.000125676
18 *143:31 *269:9 0.000138367
19 *143:31 *270:9 0.000322112
20 *143:31 *277:9 0
21 gpio_analog_pol[29] gpio_inp_dis[29] 1.5186e-05
22 gpio_analog_sel[29] gpio_dm2[29] 5.16904e-05
23 gpio_holdover[29] gpio_dm2[29] 5.11705e-05
24 gpio_slow_sel[29] gpio_dm1[29] 0.000499093
25 *110:53 *143:13 0.0012503
26 *110:63 *143:13 0.000282093
27 *110:63 *143:31 0.000249822
28 *110:77 gpio_dm1[29] 0.000485
29 *110:77 *143:31 0.000828307
30 *110:101 gpio_dm1[29] 0.000273004
*RES
1 gpio_loopback_one[29] *143:13 18.2107 
2 *143:13 gpio_dm2[29] 8.8316 
3 *143:13 *143:31 3.25453 
4 *143:31 gpio_inp_dis[29] 8.5432 
5 *143:31 gpio_dm1[29] 11.4328 
*END

*D_NET *144 0.0120535
*CONN
*P gpio_dm1[2] O
*P gpio_inp_dis[2] O
*P gpio_dm2[2] O
*P gpio_loopback_one[2] I
*CAP
1 gpio_dm1[2] 0.000760983
2 gpio_inp_dis[2] 6.42209e-05
3 gpio_dm2[2] 4.12488e-05
4 gpio_loopback_one[2] 0.000897322
5 *144:31 0.00166199
6 *144:13 0.00177536
7 *144:13 *274:9 0.00245558
8 gpio_analog_en[2] gpio_dm1[2] 1.95651e-05
9 gpio_analog_pol[2] gpio_inp_dis[2] 1.83467e-05
10 gpio_analog_sel[2] gpio_dm2[2] 2.64222e-05
11 gpio_analog_sel[2] *144:13 1.51984e-05
12 gpio_holdover[2] *144:13 2.69345e-05
13 gpio_holdover[2] *144:31 2.95288e-05
14 gpio_slow_sel[2] gpio_dm1[2] 0.000134898
15 *111:13 *144:13 0.00118413
16 *111:15 *144:13 0.000273004
17 *111:17 *144:13 0.000273004
18 *111:19 *144:13 0.000991389
19 *111:21 *144:13 0.000259356
20 *111:21 *144:31 3.33274e-05
21 *111:27 gpio_dm1[2] 0.000530565
22 *111:27 *144:31 0.000300801
23 *111:29 gpio_dm1[2] 0.00028031
*RES
1 gpio_loopback_one[2] *144:13 23.3005 
2 *144:13 gpio_dm2[2] 0.3052 
3 *144:13 *144:31 19.7744 
4 *144:31 gpio_inp_dis[2] 0.3052 
5 *144:31 gpio_dm1[2] 39.2157 
*END

*D_NET *145 0.0121069
*CONN
*P gpio_dm1[30] O
*P gpio_inp_dis[30] O
*P gpio_dm2[30] O
*P gpio_loopback_one[30] I
*CAP
1 gpio_dm1[30] 0.00085448
2 gpio_inp_dis[30] 0.000184569
3 gpio_dm2[30] 0.000219572
4 gpio_loopback_one[30] 0.0020348
5 *145:29 0.00163538
6 *145:13 0.0028507
7 gpio_dm1[30] *272:17 0.00115485
8 gpio_inp_dis[30] *272:17 0.00012368
9 *145:13 *272:17 0.000223901
10 *145:13 *273:9 0.000456585
11 *145:29 *272:17 0.000657591
12 gpio_analog_pol[30] gpio_inp_dis[30] 1.2976e-05
13 gpio_analog_sel[30] gpio_dm2[30] 3.37651e-06
14 *112:11 *145:13 0.00124113
15 *112:69 gpio_dm2[30] 7.97123e-05
16 *112:69 *145:13 0.000242593
17 *112:69 *145:29 0.000130986
*RES
1 gpio_loopback_one[30] *145:13 18.1509 
2 *145:13 gpio_dm2[30] 8.69533 
3 *145:13 *145:29 3.45707 
4 *145:29 gpio_inp_dis[30] 8.83347 
5 *145:29 gpio_dm1[30] 11.2508 
*END

*D_NET *146 0.0118949
*CONN
*P gpio_dm1[31] O
*P gpio_inp_dis[31] O
*P gpio_dm2[31] O
*P gpio_loopback_one[31] I
*CAP
1 gpio_dm1[31] 0.000701016
2 gpio_inp_dis[31] 9.70593e-05
3 gpio_dm2[31] 8.81312e-05
4 gpio_loopback_one[31] 0.00144151
5 *146:27 0.00141245
6 *146:13 0.00214402
7 gpio_dm1[31] *273:9 0.000455053
8 *146:13 *273:9 0.00249128
9 *146:27 *273:9 0.000718065
10 gpio_analog_en[31] gpio_dm1[31] 0.000442621
11 gpio_analog_pol[31] gpio_inp_dis[31] 2.90018e-05
12 gpio_analog_sel[31] gpio_dm2[31] 2.40416e-05
13 gpio_holdover[31] gpio_dm2[31] 2.16937e-05
14 *113:19 *146:13 0.00180095
15 *113:93 gpio_dm1[31] 2.80038e-05
*RES
1 gpio_loopback_one[31] *146:13 17.5312 
2 *146:13 gpio_dm2[31] 8.52547 
3 *146:13 *146:27 2.97547 
4 *146:27 gpio_inp_dis[31] 8.52547 
5 *146:27 gpio_dm1[31] 31.3714 
*END

*D_NET *147 0.012418
*CONN
*P gpio_dm1[32] O
*P gpio_inp_dis[32] O
*P gpio_dm2[32] O
*P gpio_loopback_one[32] I
*CAP
1 gpio_dm1[32] 0.000545624
2 gpio_inp_dis[32] 4.35773e-05
3 gpio_dm2[32] 2.49635e-05
4 gpio_loopback_one[32] 0.00204545
5 *147:31 0.00112678
6 *147:19 0.00260799
7 *147:31 *271:9 0
8 gpio_analog_en[32] gpio_dm1[32] 0
9 gpio_analog_pol[32] gpio_inp_dis[32] 2.16266e-05
10 gpio_analog_sel[32] gpio_dm2[32] 2.16937e-05
11 gpio_holdover[32] *147:19 2.47419e-05
12 *114:17 *147:19 0.002754
13 *114:31 *147:19 0.00014108
14 *114:41 *147:19 0.000139071
15 *114:51 *147:19 0.00053695
16 *114:65 *147:19 0.000128295
17 *114:75 gpio_dm1[32] 0.000227173
18 *114:75 *147:31 0.00102037
19 *114:85 gpio_dm1[32] 0.000255651
20 *114:95 gpio_dm1[32] 0.000260028
21 *114:121 gpio_dm1[32] 0.000492937
*RES
1 gpio_loopback_one[32] *147:19 27.0796 
2 *147:19 gpio_dm2[32] 0.199733 
3 *147:19 *147:31 24.3436 
4 *147:31 gpio_inp_dis[32] 8.1568 
5 *147:31 gpio_dm1[32] 24.0239 
*END

*D_NET *148 0.0139065
*CONN
*P gpio_dm1[33] O
*P gpio_inp_dis[33] O
*P gpio_dm2[33] O
*P gpio_loopback_one[33] I
*CAP
1 gpio_dm1[33] 0.000832884
2 gpio_inp_dis[33] 8.99806e-05
3 gpio_dm2[33] 0.000102135
4 gpio_loopback_one[33] 0.0024771
5 *148:31 0.00161897
6 *148:15 0.00327534
7 gpio_analog_en[33] gpio_dm1[33] 0
8 gpio_analog_pol[33] gpio_inp_dis[33] 2.05213e-05
9 gpio_analog_sel[33] gpio_dm2[33] 1.50005e-05
10 gpio_holdover[33] gpio_dm2[33] 1.3094e-05
11 gpio_slow_sel[33] gpio_dm1[33] 0.000472345
12 *115:19 *148:15 0.00255633
13 *115:47 *148:15 0.000308784
14 *115:57 *148:15 0.000241999
15 *115:81 gpio_dm1[33] 0.000733061
16 *115:81 *148:31 0.00104185
17 *115:101 gpio_dm1[33] 0.000107127
*RES
1 gpio_loopback_one[33] *148:15 18.5672 
2 *148:15 gpio_dm2[33] 8.4396 
3 *148:15 *148:31 3.38427 
4 *148:31 gpio_inp_dis[33] 8.3388 
5 *148:31 gpio_dm1[33] 11.1743 
*END

*D_NET *149 0.0132313
*CONN
*P gpio_dm1[34] O
*P gpio_inp_dis[34] O
*P gpio_dm2[34] O
*P gpio_loopback_one[34] I
*CAP
1 gpio_dm1[34] 0.00084175
2 gpio_inp_dis[34] 5.89434e-05
3 gpio_dm2[34] 3.60611e-05
4 gpio_loopback_one[34] 0.00267805
5 *149:31 0.00164163
6 *149:19 0.00345505
7 gpio_dm1[34] *268:9 0.000146836
8 gpio_dm1[34] *269:9 0.000291585
9 *149:31 *269:9 0
10 gpio_analog_en[34] gpio_dm1[34] 0
11 gpio_analog_pol[34] gpio_dm1[34] 3.69307e-06
12 gpio_analog_pol[34] gpio_inp_dis[34] 1.83293e-05
13 gpio_analog_sel[34] gpio_dm2[34] 1.50005e-05
14 gpio_dm0[34] gpio_dm1[34] 2.64769e-06
15 gpio_holdover[34] *149:19 7.06625e-05
16 gpio_slow_sel[34] gpio_dm1[34] 0.000484696
17 gpio_vtrip_sel[34] *149:19 3.89602e-05
18 *116:9 *149:19 0.000887409
19 *116:39 *149:19 0.000262834
20 *116:53 *149:19 0.00090546
21 *116:67 *149:19 0.00018902
22 *116:81 gpio_dm1[34] 0.000230564
23 *116:81 *149:31 0.000393165
24 *116:95 gpio_dm1[34] 0.000293149
25 *116:109 gpio_dm1[34] 0.000285843
*RES
1 gpio_loopback_one[34] *149:19 26.7343 
2 *149:19 gpio_dm2[34] 0.1568 
3 *149:19 *149:31 32.3436 
4 *149:31 gpio_inp_dis[34] 0.1568 
5 *149:31 gpio_dm1[34] 19.5317 
*END

*D_NET *150 0.0108882
*CONN
*P gpio_dm2[3] O
*P gpio_inp_dis[3] O
*P gpio_dm1[3] O
*P gpio_loopback_one[3] I
*CAP
1 gpio_dm2[3] 0.000130781
2 gpio_inp_dis[3] 9.88318e-05
3 gpio_dm1[3] 0.000698057
4 gpio_loopback_one[3] 0.0012395
5 *150:11 0.00132401
6 *150:9 0.00189741
7 gpio_analog_en[3] gpio_dm1[3] 0
8 gpio_analog_pol[3] gpio_inp_dis[3] 5.19938e-05
9 gpio_analog_sel[3] gpio_dm2[3] 1.68383e-05
10 gpio_holdover[3] gpio_dm2[3] 1.68383e-05
11 gpio_slow_sel[3] gpio_dm1[3] 0.000506979
12 *122:17 *150:9 0.00106652
13 *122:19 *150:9 0.000279045
14 *122:21 *150:9 0.000279045
15 *122:23 *150:9 0.000941459
16 *122:31 *150:9 0.000300196
17 *122:31 *150:11 0.000296619
18 *122:39 gpio_dm1[3] 0.000245189
19 *122:39 gpio_dm2[3] 0
20 *122:39 *150:11 0.000945541
21 *122:41 gpio_dm1[3] 0.00028031
22 *122:43 gpio_dm1[3] 0.000273004
*RES
1 gpio_loopback_one[3] *150:9 14.9356 
2 *150:9 *150:11 2.97547 
3 *150:11 gpio_dm1[3] 11.2611 
4 *150:11 gpio_inp_dis[3] 8.37147 
5 *150:9 gpio_dm2[3] 8.37147 
*END

*D_NET *151 0.0103136
*CONN
*P gpio_dm2[4] O
*P gpio_inp_dis[4] O
*P gpio_dm1[4] O
*P gpio_loopback_one[4] I
*CAP
1 gpio_dm2[4] 0.000138934
2 gpio_inp_dis[4] 0.000146395
3 gpio_dm1[4] 0.00063987
4 gpio_loopback_one[4] 0.00165296
5 *151:11 0.00127439
6 *151:9 0.00228002
7 gpio_analog_en[4] gpio_dm1[4] 0
8 gpio_analog_pol[4] gpio_inp_dis[4] 2.54581e-05
9 gpio_analog_sel[4] gpio_dm2[4] 2.00158e-05
10 gpio_holdover[4] gpio_dm2[4] 1.89257e-05
11 gpio_slow_sel[4] gpio_dm1[4] 0.000489022
12 *127:9 *151:9 0.000311873
13 *127:21 *151:9 0.000943591
14 *127:23 *151:9 0.000305903
15 *127:23 *151:11 0.000266291
16 *127:25 gpio_dm1[4] 0.000210482
17 *127:25 *151:11 0.00103142
18 *127:27 gpio_dm1[4] 0.000279045
19 *127:29 gpio_dm1[4] 0.000279045
*RES
1 gpio_loopback_one[4] *151:9 14.9356 
2 *151:9 *151:11 2.97547 
3 *151:11 gpio_dm1[4] 11.2611 
4 *151:11 gpio_inp_dis[4] 8.37147 
5 *151:9 gpio_dm2[4] 8.37147 
*END

*D_NET *152 0.00997804
*CONN
*P gpio_inp_dis[5] O
*P gpio_dm1[5] O
*P gpio_dm2[5] O
*P gpio_loopback_one[5] I
*CAP
1 gpio_inp_dis[5] 0.00012266
2 gpio_dm1[5] 0.000806854
3 gpio_dm2[5] 6.3006e-05
4 gpio_loopback_one[5] 0.00201032
5 *152:27 0.00165441
6 *152:13 0.00279822
7 *152:13 gpio_out[5] 0
8 *152:27 gpio_out[5] 0
9 gpio_analog_en[5] gpio_dm1[5] 3.11196e-05
10 gpio_analog_pol[5] gpio_inp_dis[5] 1.93441e-05
11 gpio_analog_sel[5] gpio_dm2[5] 1.30913e-05
12 gpio_holdover[5] *152:13 1.30444e-06
13 gpio_holdover[5] *152:27 1.44027e-05
14 gpio_slow_sel[5] gpio_dm1[5] 0.000370222
15 *128:21 *152:13 0.00060844
16 *128:43 gpio_dm1[5] 0.000253389
17 *128:43 *152:27 0.000829841
18 *128:61 gpio_dm1[5] 0.000381412
*RES
1 gpio_loopback_one[5] *152:13 23.4723 
2 *152:13 gpio_dm2[5] 0.290267 
3 *152:13 *152:27 11.2032 
4 *152:27 gpio_dm1[5] 31.2187 
5 *152:27 gpio_inp_dis[5] 8.518 
*END

*D_NET *153 0.00946635
*CONN
*P gpio_dm2[6] O
*P gpio_inp_dis[6] O
*P gpio_dm1[6] O
*P gpio_loopback_one[6] I
*CAP
1 gpio_dm2[6] 0.000121909
2 gpio_inp_dis[6] 0.000151307
3 gpio_dm1[6] 0.000962526
4 gpio_loopback_one[6] 0.00171633
5 *153:11 0.00170184
6 *153:9 0.00242624
7 gpio_dm2[6] gpio_out[6] 0
8 gpio_analog_en[6] gpio_dm1[6] 0
9 gpio_analog_pol[6] gpio_inp_dis[6] 1.53391e-05
10 gpio_analog_sel[6] gpio_dm2[6] 1.78301e-05
11 gpio_holdover[6] gpio_dm2[6] 1.78301e-05
12 *129:17 *153:9 0.000961556
13 *129:33 *153:9 0.000207907
14 *129:53 gpio_dm1[6] 0.000190707
15 *129:53 gpio_inp_dis[6] 1.08303e-05
16 *129:53 *153:11 0.000964198
*RES
1 gpio_loopback_one[6] *153:9 14.7489 
2 *153:9 *153:11 2.97547 
3 *153:11 gpio_dm1[6] 11.2611 
4 *153:11 gpio_inp_dis[6] 8.37147 
5 *153:9 gpio_dm2[6] 8.37147 
*END

*D_NET *154 0.0126852
*CONN
*P gpio_dm2[7] O
*P gpio_inp_dis[7] O
*P gpio_dm1[7] O
*P gpio_loopback_one[7] I
*CAP
1 gpio_dm2[7] 0.000156243
2 gpio_inp_dis[7] 0.000162445
3 gpio_dm1[7] 0.000363121
4 gpio_loopback_one[7] 0.000865715
5 *154:11 0.00071302
6 *154:9 0.00120941
7 gpio_dm1[7] gpio_out[7] 0.00127048
8 gpio_dm1[7] *285:9 0.00125759
9 *154:9 gpio_out[7] 0.00048687
10 *154:9 *285:9 0.0026944
11 *154:11 gpio_out[7] 0.00128361
12 *154:11 *285:9 0.00129771
13 gpio_analog_pol[7] gpio_inp_dis[7] 1.83467e-05
14 gpio_analog_sel[7] gpio_dm2[7] 1.50156e-05
15 gpio_holdover[7] gpio_dm2[7] 1.50156e-05
16 *130:21 *154:9 0.000876201
*RES
1 gpio_loopback_one[7] *154:9 14.5623 
2 *154:9 *154:11 2.97547 
3 *154:11 gpio_dm1[7] 11.2611 
4 *154:11 gpio_inp_dis[7] 8.37147 
5 *154:9 gpio_dm2[7] 8.37147 
*END

*D_NET *155 0.0108832
*CONN
*P gpio_dm2[8] O
*P gpio_inp_dis[8] O
*P gpio_dm1[8] O
*P gpio_loopback_one[8] I
*CAP
1 gpio_dm2[8] 0.000248064
2 gpio_inp_dis[8] 0.000202973
3 gpio_dm1[8] 0.000736112
4 gpio_loopback_one[8] 0.00118737
5 *155:11 0.00148114
6 *155:9 0.00197749
7 gpio_dm1[8] *285:9 0.000260051
8 gpio_inp_dis[8] *286:11 7.77019e-05
9 *155:9 *286:17 0.0026234
10 *155:11 *285:9 4.03631e-05
11 *155:11 *286:17 0.00120428
12 gpio_analog_en[8] gpio_dm1[8] 0
13 gpio_analog_pol[8] gpio_inp_dis[8] 1.93441e-05
14 gpio_holdover[8] gpio_dm2[8] 1.50156e-05
15 gpio_slow_sel[8] gpio_dm1[8] 0.000510535
16 *131:43 gpio_dm2[8] 1.17237e-05
17 *131:63 gpio_dm1[8] 0.000287663
*RES
1 gpio_loopback_one[8] *155:9 14.5483 
2 *155:9 *155:11 2.97547 
3 *155:11 gpio_dm1[8] 11.4328 
4 *155:11 gpio_inp_dis[8] 8.5432 
5 *155:9 gpio_dm2[8] 8.5432 
*END

*D_NET *156 0.00925883
*CONN
*P gpio_dm2[9] O
*P gpio_inp_dis[9] O
*P gpio_dm1[9] O
*P gpio_loopback_one[9] I
*CAP
1 gpio_dm2[9] 5.26664e-05
2 gpio_inp_dis[9] 5.88683e-05
3 gpio_dm1[9] 0.000825342
4 gpio_loopback_one[9] 0.00148046
5 *156:25 0.00163651
6 *156:21 0.00228542
7 *156:21 gpio_out[10] 0.00023734
8 *156:21 *265:7 2.2447e-05
9 gpio_analog_en[9] gpio_dm1[9] 0
10 gpio_analog_pol[9] gpio_inp_dis[9] 1.83467e-05
11 gpio_analog_sel[9] gpio_dm2[9] 1.50156e-05
12 gpio_analog_sel[9] *156:21 1.30466e-05
13 gpio_holdover[9] gpio_dm2[9] 1.50156e-05
14 *132:9 *156:21 0.000383683
15 *132:11 *156:21 0.000273004
16 *132:13 *156:21 0.000273004
17 *132:15 *156:21 0.000984094
18 *132:19 *156:21 0.000291417
19 *132:23 *156:25 0.000393165
*RES
1 gpio_loopback_one[9] *156:21 23.2147 
2 *156:21 *156:25 24.3436 
3 *156:25 gpio_dm1[9] 24.0239 
4 *156:25 gpio_inp_dis[9] 8.1568 
5 *156:21 gpio_dm2[9] 0.1568 
*END

*D_NET *157 0.36789
*CONN
*P gpio_in[0] I
*I *325:wb_clk_i I *D user_proj_timer
*I *324:wb_clk_i I *D user_proj_timer
*CAP
1 gpio_in[0] 0.0102453
2 *325:wb_clk_i 3.17006e-05
3 *324:wb_clk_i 0
4 *157:34 0.173654
5 *157:32 0.173668
6 *157:23 0.0102914
*RES
1 gpio_in[0] *157:23 44.3991 
2 *157:23 *324:wb_clk_i 8 
3 *157:23 *157:32 1.01047 
4 *157:32 *157:34 65.6657 
5 *157:34 *325:wb_clk_i 8.97313 
*END

*D_NET *168 0.382025
*CONN
*P gpio_in[1] I
*I *324:wb_rst_i I *D user_proj_timer
*I *325:wb_rst_i I *D user_proj_timer
*CAP
1 gpio_in[1] 0.00679375
2 *324:wb_rst_i 3.25761e-05
3 *325:wb_rst_i 4.03462e-05
4 *168:23 0.17838
5 *168:21 0.178339
6 *168:19 0.00583904
7 *168:15 0.0126002
*RES
1 gpio_in[1] *168:15 30.3991 
2 *168:15 *168:19 21.9296 
3 *168:19 *168:21 0.891 
4 *168:21 *168:23 65.6688 
5 *168:23 *325:wb_rst_i 8.99553 
6 *168:19 *324:wb_rst_i 8.10453 
*END

*D_NET *245 0.00690292
*CONN
*P gpio_oeb[13] O
*P gpio_inp_dis[13] O
*P gpio_loopback_one[13] I
*CAP
1 gpio_oeb[13] 7.78778e-05
2 gpio_inp_dis[13] 0.00219849
3 gpio_loopback_one[13] 0.000297779
4 *245:11 0.00257414
5 gpio_analog_pol[13] gpio_inp_dis[13] 2.16353e-05
6 gpio_ib_mode_sel[13] gpio_oeb[13] 1.94175e-05
7 gpio_ib_mode_sel[13] *245:11 0.000685896
8 *93:33 gpio_inp_dis[13] 0.000107127
9 *93:45 gpio_inp_dis[13] 0.000277518
10 *93:61 gpio_inp_dis[13] 0.000273004
11 *93:65 gpio_inp_dis[13] 0.000370035
*RES
1 gpio_loopback_one[13] *245:11 24.8464 
2 *245:11 gpio_inp_dis[13] 23.3229 
3 *245:11 gpio_oeb[13] 0.199733 
*END

*D_NET *246 0.0076287
*CONN
*P gpio_oeb[14] O
*P gpio_inp_dis[14] O
*P gpio_loopback_one[14] I
*CAP
1 gpio_oeb[14] 0.000198462
2 gpio_inp_dis[14] 0.00185102
3 gpio_loopback_one[14] 0.000593849
4 *246:9 0.00264333
5 gpio_analog_pol[14] gpio_inp_dis[14] 2.16353e-05
6 gpio_ib_mode_sel[14] gpio_oeb[14] 2.28949e-05
7 *94:13 gpio_inp_dis[14] 0.000284113
8 *94:13 *246:9 0.00101938
9 *94:47 gpio_inp_dis[14] 0.000994012
*RES
1 gpio_loopback_one[14] *246:9 10.8859 
2 *246:9 gpio_inp_dis[14] 15.5544 
3 *246:9 gpio_oeb[14] 8.5432 
*END

*D_NET *247 0.0113779
*CONN
*P gpio_inp_dis[15] O
*P gpio_oeb[15] O
*P gpio_loopback_one[15] I
*CAP
1 gpio_inp_dis[15] 0.00195297
2 gpio_oeb[15] 0.000127119
3 gpio_loopback_one[15] 0.000957012
4 *247:9 0.0030371
5 gpio_analog_pol[15] gpio_inp_dis[15] 0.00107209
6 gpio_ib_mode_sel[15] gpio_inp_dis[15] 0.000245086
7 gpio_ib_mode_sel[15] *247:9 0.00300907
8 gpio_out[15] gpio_inp_dis[15] 0.000977432
*RES
1 gpio_loopback_one[15] *247:9 14.9674 
2 *247:9 gpio_oeb[15] 10.5893 
3 *247:9 gpio_inp_dis[15] 17.0583 
*END

*D_NET *248 0.00857404
*CONN
*P gpio_inp_dis[16] O
*P gpio_oeb[16] O
*P gpio_loopback_one[16] I
*CAP
1 gpio_inp_dis[16] 0.00195972
2 gpio_oeb[16] 8.89492e-05
3 gpio_loopback_one[16] 0.000709307
4 *248:11 0.00275798
5 gpio_analog_pol[16] gpio_inp_dis[16] 0.00107209
6 gpio_ib_mode_sel[16] gpio_inp_dis[16] 0.000197959
7 gpio_ib_mode_sel[16] gpio_oeb[16] 0
8 gpio_ib_mode_sel[16] *248:11 0.00099992
9 gpio_out[16] gpio_inp_dis[16] 0.000788119
*RES
1 gpio_loopback_one[16] *248:11 14.1464 
2 *248:11 gpio_oeb[16] 9.87464 
3 *248:11 gpio_inp_dis[16] 17.667 
*END

*D_NET *249 0.00859921
*CONN
*P gpio_inp_dis[17] O
*P gpio_oeb[17] O
*P gpio_loopback_one[17] I
*CAP
1 gpio_inp_dis[17] 0.00204707
2 gpio_oeb[17] 0.00268023
3 gpio_loopback_one[17] 0.000633166
4 gpio_analog_pol[17] gpio_inp_dis[17] 0.000637744
5 gpio_ib_mode_sel[17] gpio_inp_dis[17] 0.00022018
6 gpio_ib_mode_sel[17] gpio_oeb[17] 0.00173469
7 gpio_out[17] gpio_inp_dis[17] 0.000646134
*RES
1 gpio_loopback_one[17] gpio_oeb[17] 21.6743 
2 gpio_oeb[17] gpio_inp_dis[17] 26.0265 
*END

*D_NET *250 0.00906129
*CONN
*P gpio_inp_dis[18] O
*P gpio_oeb[18] O
*P gpio_loopback_one[18] I
*CAP
1 gpio_inp_dis[18] 0.00196192
2 gpio_oeb[18] 0.00262311
3 gpio_loopback_one[18] 0.000661186
4 gpio_ib_mode_sel[18] gpio_inp_dis[18] 0.000125523
5 gpio_ib_mode_sel[18] gpio_oeb[18] 0.00168736
6 *98:27 gpio_inp_dis[18] 0.000977432
7 *98:53 gpio_inp_dis[18] 0.00102476
*RES
1 gpio_loopback_one[18] gpio_oeb[18] 22.5413 
2 gpio_oeb[18] gpio_inp_dis[18] 26.8076 
*END

*D_NET *251 0.0113458
*CONN
*P gpio_inp_dis[19] O
*P gpio_oeb[19] O
*P gpio_loopback_one[19] I
*CAP
1 gpio_inp_dis[19] 0.00178764
2 gpio_oeb[19] 6.5784e-05
3 gpio_loopback_one[19] 0.00109915
4 *251:9 0.00295257
5 gpio_analog_pol[19] gpio_inp_dis[19] 0.00121407
6 gpio_ib_mode_sel[19] gpio_inp_dis[19] 0.000141985
7 gpio_ib_mode_sel[19] *251:9 0.00334385
8 gpio_out[19] gpio_inp_dis[19] 0.000740791
*RES
1 gpio_loopback_one[19] *251:9 15.3302 
2 *251:9 gpio_oeb[19] 9.50179 
3 *251:9 gpio_inp_dis[19] 15.9978 
*END

*D_NET *252 0.0110013
*CONN
*P gpio_inp_dis[20] O
*P gpio_oeb[20] O
*P gpio_loopback_one[20] I
*CAP
1 gpio_inp_dis[20] 0.00201928
2 gpio_oeb[20] 0.00297784
3 gpio_loopback_one[20] 0.000958556
4 gpio_analog_pol[20] gpio_inp_dis[20] 0.000977432
5 gpio_ib_mode_sel[20] gpio_inp_dis[20] 0.000125523
6 gpio_ib_mode_sel[20] gpio_oeb[20] 0.00296522
7 gpio_out[20] gpio_inp_dis[20] 0.000977432
*RES
1 gpio_loopback_one[20] gpio_oeb[20] 23.1922 
2 gpio_oeb[20] gpio_inp_dis[20] 27.5119 
*END

*D_NET *253 0.0113312
*CONN
*P gpio_inp_dis[21] O
*P gpio_oeb[21] O
*P gpio_loopback_one[21] I
*CAP
1 gpio_inp_dis[21] 0.00168068
2 gpio_oeb[21] 5.53493e-05
3 gpio_loopback_one[21] 0.000886785
4 *253:9 0.00262281
5 gpio_analog_pol[21] gpio_inp_dis[21] 0.00102476
6 gpio_analog_sel[21] gpio_inp_dis[21] 0.000287395
7 gpio_dm2[21] gpio_inp_dis[21] 0.000287395
8 gpio_holdover[21] gpio_inp_dis[21] 0.000232058
9 gpio_ib_mode_sel[21] gpio_inp_dis[21] 0.000406017
10 gpio_ib_mode_sel[21] *253:9 0.00272858
11 gpio_vtrip_sel[21] gpio_inp_dis[21] 0.000287395
12 *102:37 gpio_inp_dis[21] 0.000831972
*RES
1 gpio_loopback_one[21] *253:9 14.6904 
2 *253:9 gpio_oeb[21] 9.26357 
3 *253:9 gpio_inp_dis[21] 16.2748 
*END

*D_NET *254 0.0109873
*CONN
*P gpio_inp_dis[22] O
*P gpio_oeb[22] O
*P gpio_loopback_one[22] I
*CAP
1 gpio_inp_dis[22] 0.00150123
2 gpio_oeb[22] 6.5784e-05
3 gpio_loopback_one[22] 0.000993267
4 *254:9 0.00256028
5 gpio_analog_pol[22] gpio_inp_dis[22] 0.00111942
6 gpio_analog_sel[22] gpio_inp_dis[22] 0.000287395
7 gpio_dm2[22] gpio_inp_dis[22] 0.000287395
8 gpio_holdover[22] gpio_inp_dis[22] 0.000246338
9 gpio_out[22] gpio_inp_dis[22] 0.000788119
10 *103:11 gpio_inp_dis[22] 0.000267508
11 *103:11 *254:9 0.00287056
*RES
1 gpio_loopback_one[22] *254:9 15.1862 
2 *254:9 gpio_oeb[22] 9.50179 
3 *254:9 gpio_inp_dis[22] 15.9978 
*END

*D_NET *255 0.00979663
*CONN
*P gpio_inp_dis[23] O
*P gpio_oeb[23] O
*P gpio_loopback_one[23] I
*CAP
1 gpio_inp_dis[23] 0.00208733
2 gpio_oeb[23] 0.00297131
3 gpio_loopback_one[23] 0.000883974
4 gpio_analog_pol[23] gpio_inp_dis[23] 0.000637744
5 gpio_ib_mode_sel[23] gpio_inp_dis[23] 7.81946e-05
6 gpio_ib_mode_sel[23] gpio_oeb[23] 0.00249194
7 gpio_out[23] gpio_inp_dis[23] 0.000646134
*RES
1 gpio_loopback_one[23] gpio_oeb[23] 23.7629 
2 gpio_oeb[23] gpio_inp_dis[23] 27.9024 
*END

*D_NET *256 0.0100329
*CONN
*P gpio_inp_dis[35] O
*P gpio_oeb[35] O
*P gpio_loopback_one[35] I
*CAP
1 gpio_inp_dis[35] 0.00147657
2 gpio_oeb[35] 9.04553e-05
3 gpio_loopback_one[35] 0.00121572
4 *256:13 0.00278275
5 *256:13 *268:9 0.000410344
6 gpio_analog_pol[35] gpio_inp_dis[35] 2.05213e-05
7 *117:19 gpio_inp_dis[35] 0.000122793
8 *117:19 gpio_oeb[35] 1.96951e-05
9 *117:19 *256:13 0.00116165
10 *117:31 gpio_inp_dis[35] 0.000264801
11 *117:31 gpio_oeb[35] 3.69356e-06
12 *117:45 gpio_inp_dis[35] 0.000752104
13 *117:55 gpio_inp_dis[35] 0.000218794
14 *117:65 gpio_inp_dis[35] 0.000251605
15 *117:75 gpio_inp_dis[35] 0.000251605
16 *117:89 gpio_inp_dis[35] 0.000989758
*RES
1 gpio_loopback_one[35] *256:13 14.4101 
2 *256:13 gpio_oeb[35] 8.35 
3 *256:13 gpio_inp_dis[35] 15.2847 
*END

*D_NET *257 0.009318
*CONN
*P gpio_oeb[36] O
*P gpio_inp_dis[36] O
*P gpio_loopback_one[36] I
*CAP
1 gpio_oeb[36] 0.00010057
2 gpio_inp_dis[36] 0.00242816
3 gpio_loopback_one[36] 0.00135971
4 *257:9 0.00388844
5 *257:9 *268:9 0
6 gpio_analog_pol[36] gpio_inp_dis[36] 2.16266e-05
7 gpio_ib_mode_sel[36] gpio_oeb[36] 1.50005e-05
8 *118:19 gpio_inp_dis[36] 0.000314728
9 *118:19 *257:9 0.000645254
10 *118:41 gpio_inp_dis[36] 0.000241999
11 *118:81 gpio_inp_dis[36] 0.000302506
*RES
1 gpio_loopback_one[36] *257:9 37.9336 
2 *257:9 gpio_inp_dis[36] 32.3543 
3 *257:9 gpio_oeb[36] 9.04234 
*END

*D_NET *258 0.0102217
*CONN
*P gpio_inp_dis[37] O
*P gpio_oeb[37] O
*P gpio_loopback_one[37] I
*CAP
1 gpio_inp_dis[37] 0.00212102
2 gpio_oeb[37] 0.000100345
3 gpio_loopback_one[37] 0.00101347
4 *258:13 0.00323484
5 gpio_analog_pol[37] gpio_inp_dis[37] 4.49749e-05
6 gpio_ib_mode_sel[37] gpio_oeb[37] 8.6061e-06
7 *119:11 gpio_inp_dis[37] 0.000129768
8 *119:11 *258:13 0.00191442
9 *119:17 gpio_oeb[37] 1.75357e-05
10 *119:27 gpio_inp_dis[37] 0.000241999
11 *119:55 gpio_inp_dis[37] 0.000289939
12 *119:67 gpio_inp_dis[37] 0.0011048
*RES
1 gpio_loopback_one[37] *258:13 13.7755 
2 *258:13 gpio_oeb[37] 8.5348 
3 *258:13 gpio_inp_dis[37] 16.3468 
*END

*D_NET *259 0.00788966
*CONN
*P gpio_oeb[38] O
*P gpio_inp_dis[38] O
*P gpio_loopback_one[38] I
*CAP
1 gpio_oeb[38] 4.08755e-05
2 gpio_inp_dis[38] 0.00183559
3 gpio_loopback_one[38] 0.000255346
4 *259:9 0.00213182
5 gpio_analog_pol[38] gpio_inp_dis[38] 0
6 gpio_ib_mode_sel[38] gpio_oeb[38] 0
7 *120:9 gpio_inp_dis[38] 0.0003271
8 *120:9 *259:9 0.000648758
9 *120:11 gpio_inp_dis[38] 0.0003271
10 *120:17 gpio_inp_dis[38] 0.00097049
11 *120:51 gpio_inp_dis[38] 0.00135258
*RES
1 gpio_loopback_one[38] *259:9 9.96772 
2 *259:9 gpio_inp_dis[38] 15.788 
3 *259:9 gpio_oeb[38] 8.77679 
*END

*D_NET *260 0.00781397
*CONN
*P gpio_oeb[39] O
*P gpio_inp_dis[39] O
*P gpio_loopback_one[39] I
*CAP
1 gpio_oeb[39] 4.08755e-05
2 gpio_inp_dis[39] 0.00144713
3 gpio_loopback_one[39] 0.00024217
4 *260:9 0.00173017
5 gpio_analog_pol[39] gpio_inp_dis[39] 0
6 gpio_ib_mode_sel[39] gpio_oeb[39] 0
7 *121:9 gpio_inp_dis[39] 0.000227894
8 *121:9 *260:9 0.000645753
9 *121:11 gpio_inp_dis[39] 0.000322892
10 *121:13 gpio_inp_dis[39] 0.00093816
11 *121:15 gpio_inp_dis[39] 0.000275563
12 *121:17 gpio_inp_dis[39] 0.000322892
13 *121:19 gpio_inp_dis[39] 0.000322892
14 *121:21 gpio_inp_dis[39] 0.00129758
*RES
1 gpio_loopback_one[39] *260:9 9.96212 
2 *260:9 gpio_inp_dis[39] 16.4637 
3 *260:9 gpio_oeb[39] 8.77679 
*END

*D_NET *261 0.00600178
*CONN
*P gpio_oeb[40] O
*P gpio_inp_dis[40] O
*P gpio_loopback_one[40] I
*CAP
1 gpio_oeb[40] 0.000116476
2 gpio_inp_dis[40] 0.00133323
3 gpio_loopback_one[40] 0.000338145
4 *261:13 0.00178785
5 gpio_analog_pol[40] gpio_inp_dis[40] 0
6 gpio_ib_mode_sel[40] gpio_oeb[40] 0
7 *123:9 gpio_inp_dis[40] 0.00015183
8 *123:9 *261:13 0.00037228
9 *123:11 gpio_inp_dis[40] 0.000181088
10 *123:13 gpio_inp_dis[40] 0.000517394
11 *123:15 gpio_inp_dis[40] 0.000155218
12 *123:17 gpio_inp_dis[40] 0.000181088
13 *123:19 gpio_inp_dis[40] 0.000181088
14 *123:21 gpio_inp_dis[40] 0.000686104
*RES
1 gpio_loopback_one[40] *261:13 11.8785 
2 *261:13 gpio_inp_dis[40] 17.7913 
3 *261:13 gpio_oeb[40] 10.9518 
*END

*D_NET *262 0.00591986
*CONN
*P gpio_oeb[41] O
*P gpio_inp_dis[41] O
*P gpio_loopback_one[41] I
*CAP
1 gpio_oeb[41] 0.000110129
2 gpio_inp_dis[41] 0.00136317
3 gpio_loopback_one[41] 0.000312395
4 *262:17 0.00178569
5 gpio_analog_pol[41] gpio_inp_dis[41] 0
6 gpio_ib_mode_sel[41] gpio_oeb[41] 0
7 *124:9 gpio_inp_dis[41] 0.000203569
8 *124:9 *262:17 0.000242931
9 *124:11 gpio_inp_dis[41] 0.000181088
10 *124:13 gpio_inp_dis[41] 0.000517394
11 *124:15 gpio_inp_dis[41] 0.000155218
12 *124:17 gpio_inp_dis[41] 0.000181088
13 *124:19 gpio_inp_dis[41] 0.000181088
14 *124:21 gpio_inp_dis[41] 0.000686104
*RES
1 gpio_loopback_one[41] *262:17 13.0027 
2 *262:17 gpio_inp_dis[41] 17.963 
3 *262:17 gpio_oeb[41] 10.9518 
*END

*D_NET *263 0.00729243
*CONN
*P gpio_oeb[42] O
*P gpio_inp_dis[42] O
*P gpio_loopback_one[42] I
*CAP
1 gpio_oeb[42] 4.08755e-05
2 gpio_inp_dis[42] 0.00156656
3 gpio_loopback_one[42] 0.000266298
4 *263:9 0.00187373
5 gpio_analog_pol[42] gpio_inp_dis[42] 0
6 gpio_ib_mode_sel[42] gpio_oeb[42] 0
7 *125:9 gpio_inp_dis[42] 0.000322892
8 *125:9 *263:9 0.000639671
9 *125:11 gpio_inp_dis[42] 0.000322892
10 *125:13 gpio_inp_dis[42] 0.00093816
11 *125:15 gpio_inp_dis[42] 0.000275563
12 *125:17 gpio_inp_dis[42] 0.000322892
13 *125:19 gpio_inp_dis[42] 0.000226315
14 *125:21 gpio_inp_dis[42] 0.000487685
15 *125:25 gpio_inp_dis[42] 8.9031e-06
*RES
1 gpio_loopback_one[42] *263:9 9.95839 
2 *263:9 gpio_inp_dis[42] 16.4637 
3 *263:9 gpio_oeb[42] 8.77679 
*END

*D_NET *264 0.00640074
*CONN
*P gpio_oeb[43] O
*P gpio_inp_dis[43] O
*P gpio_loopback_one[43] I
*CAP
1 gpio_oeb[43] 0.000106314
2 gpio_inp_dis[43] 0.00150759
3 gpio_loopback_one[43] 0.000286369
4 *264:13 0.00190027
5 gpio_analog_pol[43] gpio_inp_dis[43] 0
6 *126:19 gpio_inp_dis[43] 0.000358698
7 *126:19 gpio_oeb[43] 0
8 *126:19 *264:13 0.000520611
9 *126:39 gpio_inp_dis[43] 0.000517394
10 *126:41 gpio_inp_dis[43] 0.000155218
11 *126:43 gpio_inp_dis[43] 0.000181088
12 *126:45 gpio_inp_dis[43] 0.000181088
13 *126:47 gpio_inp_dis[43] 0.000686104
*RES
1 gpio_loopback_one[43] *264:13 12.0766 
2 *264:13 gpio_inp_dis[43] 17.963 
3 *264:13 gpio_oeb[43] 10.9518 
*END

*D_NET *265 0.0351195
*CONN
*P gpio_out[10] O
*I *324:io_out[8] O *D user_proj_timer
*CAP
1 gpio_out[10] 0.00882368
2 *324:io_out[8] 0.00657884
3 *265:7 0.0154025
4 gpio_dm1[10] gpio_out[10] 0.000287872
5 gpio_holdover[10] gpio_out[10] 1.5186e-05
6 gpio_slow_sel[10] gpio_out[10] 0.000207907
7 *90:41 gpio_out[10] 0.000137351
8 *90:45 gpio_out[10] 0.00124585
9 *90:47 gpio_out[10] 0.000264272
10 *90:51 gpio_out[10] 0.000293408
11 *132:9 gpio_out[10] 0.00110748
12 *135:23 gpio_out[10] 0.000495373
13 *156:21 gpio_out[10] 0.00023734
14 *156:21 *265:7 2.2447e-05
*RES
1 *324:io_out[8] *265:7 29.4275 
2 *265:7 gpio_out[10] 46.7156 
*END

*D_NET *266 0.0282807
*CONN
*P gpio_out[11] O
*I *324:io_out[9] O *D user_proj_timer
*CAP
1 gpio_out[11] 0.00450298
2 *324:io_out[9] 0.00962654
3 *266:9 0.0141295
4 gpio_dm2[11] gpio_out[11] 0
5 gpio_holdover[11] gpio_out[11] 2.16353e-05
*RES
1 *324:io_out[9] *266:9 46.2611 
2 *266:9 gpio_out[11] 21.454 
*END

*D_NET *267 0.0249605
*CONN
*P gpio_out[12] O
*I *324:io_out[10] O *D user_proj_timer
*CAP
1 gpio_out[12] 0.00519873
2 *324:io_out[10] 0.00726923
3 *267:11 0.012468
4 gpio_holdover[12] gpio_out[12] 2.45583e-05
*RES
1 *324:io_out[10] *267:11 43.4344 
2 *267:11 gpio_out[12] 16.0449 
*END

*D_NET *268 0.493536
*CONN
*P gpio_out[24] O
*I *325:io_out[0] O *D user_proj_timer
*CAP
1 gpio_out[24] 0.000207943
2 *325:io_out[0] 0.00675676
3 *268:17 0.0459091
4 *268:15 0.0460208
5 *268:9 0.0839445
6 *268:7 0.0903817
7 *268:9 *269:9 0.173439
8 *268:9 *270:17 0.00379464
9 *268:9 *273:9 0.00494532
10 *268:15 gpio_out[26] 4.17978e-05
11 *268:17 *269:17 0.0173489
12 gpio_analog_en[27] *268:9 0
13 gpio_dm1[27] *268:9 0.00014399
14 gpio_dm1[29] *268:9 0.00014399
15 gpio_dm1[34] *268:9 0.000146836
16 gpio_holdover[24] gpio_out[24] 1.6303e-05
17 gpio_holdover[26] *268:15 9.99315e-05
18 gpio_slow_sel[25] *268:17 0.0012289
19 gpio_slow_sel[26] *268:17 0.0012289
20 gpio_slow_sel[27] *268:9 0
21 gpio_slow_sel[33] *268:9 0.00014399
22 gpio_slow_sel[36] *268:9 0
23 gpio_vtrip_sel[26] *268:9 0
24 *105:19 *268:17 0.000538619
25 *105:71 gpio_out[24] 3.34421e-05
26 *106:13 *268:17 0.00349051
27 *106:53 *268:17 0.000517304
28 *106:63 *268:17 0.00121429
29 *106:73 *268:17 0.000251605
30 *106:83 *268:17 0.000251605
31 *107:57 *268:17 7.81047e-05
32 *107:67 *268:17 0.000510517
33 *107:77 *268:17 0.00148051
34 *107:101 *268:17 0.000251605
35 *108:61 *268:9 0
36 *108:71 *268:9 0
37 *108:81 *268:9 0
38 *108:91 *268:9 0
39 *113:67 *268:9 0.00014399
40 *115:81 *268:9 0.000207923
41 *117:89 *268:9 0.000287981
42 *118:31 *268:9 0
43 *118:41 *268:9 0
44 *118:51 *268:9 0
45 *118:61 *268:9 0
46 *118:71 *268:9 0
47 *118:81 *268:9 0
48 *118:93 *268:9 0
49 *138:15 *268:17 0.00355991
50 *139:17 *268:17 0.000805263
51 *139:29 *268:17 0.000370035
52 *140:13 *268:9 0.00108987
53 *141:9 *268:9 0.000495572
54 *141:19 *268:9 0.000148354
55 *142:13 *268:9 0.000593664
56 *142:31 *268:9 0.000180992
57 *143:13 *268:9 0.000555596
58 *143:31 *268:9 0.000125676
59 *256:13 *268:9 0.000410344
60 *257:9 *268:9 0
*RES
1 *325:io_out[0] *268:7 28.4923 
2 *268:7 *268:9 2703.19 
3 *268:9 *268:15 16.8717 
4 *268:15 *268:17 198.326 
5 *268:17 gpio_out[24] 8.81853 
*END

*D_NET *269 0.457999
*CONN
*P gpio_out[25] O
*I *325:io_out[1] O *D user_proj_timer
*CAP
1 gpio_out[25] 0.000285876
2 *325:io_out[1] 0.00680556
3 *269:17 0.013441
4 *269:15 0.0134516
5 *269:9 0.0340638
6 *269:7 0.0405728
7 *269:9 *270:9 0.133139
8 *269:9 *270:17 0.00255322
9 *269:9 *273:9 0.00494532
10 *269:15 gpio_out[27] 0
11 *269:17 *270:17 0.00932117
12 gpio_dm1[28] *269:9 0
13 gpio_dm1[29] *269:9 0.00014399
14 gpio_dm1[34] *269:9 0.000291585
15 gpio_dm2[27] *269:15 0.000226134
16 gpio_holdover[25] gpio_out[25] 1.83293e-05
17 gpio_holdover[27] *269:15 2.52409e-05
18 gpio_slow_sel[27] *269:17 0.000839862
19 gpio_slow_sel[28] *269:9 0
20 gpio_slow_sel[33] *269:9 0.00014399
21 gpio_slow_sel[34] *269:9 0
22 *106:41 *269:17 0.00022183
23 *106:53 gpio_out[25] 2.74032e-05
24 *107:19 *269:17 0.00336265
25 *107:57 *269:17 5.46327e-05
26 *108:41 *269:9 0
27 *108:51 *269:9 0
28 *108:61 *269:9 0
29 *108:71 *269:17 0.000342844
30 *109:37 *269:9 0
31 *109:73 *269:9 0
32 *109:83 *269:9 0
33 *113:67 *269:9 0.00014399
34 *115:81 *269:9 0.000207923
35 *116:9 *269:9 0
36 *116:23 *269:9 0
37 *141:9 *269:9 0.000794024
38 *142:13 *269:9 0.00065361
39 *142:31 *269:9 0.000395734
40 *143:13 *269:9 0.000599697
41 *143:31 *269:9 0.000138367
42 *149:31 *269:9 0
43 *268:9 *269:9 0.173439
44 *268:17 *269:17 0.0173489
*RES
1 *325:io_out[1] *269:7 28.5781 
2 *269:7 *269:9 2203.85 
3 *269:9 *269:15 16.9576 
4 *269:15 *269:17 79.5163 
5 *269:17 gpio_out[25] 9.05 
*END

*D_NET *270 0.371921
*CONN
*P gpio_out[26] O
*I *325:io_out[2] O *D user_proj_timer
*CAP
1 gpio_out[26] 0.000116211
2 *325:io_out[2] 0.00686675
3 *270:17 0.0120097
4 *270:15 0.0121035
5 *270:9 0.0282098
6 *270:7 0.0348666
7 *270:9 *271:9 0.0934042
8 *270:9 *272:17 0.00237034
9 *270:9 *273:9 0.00494532
10 *270:17 *271:17 0.00797864
11 *270:17 *272:17 0.000186784
12 gpio_analog_pol[29] *270:9 0
13 gpio_analog_pol[33] *270:9 0
14 gpio_dm1[27] *270:17 0.0012362
15 gpio_dm1[29] *270:9 0.000283061
16 gpio_holdover[26] gpio_out[26] 1.75276e-05
17 gpio_oeb[28] *270:9 0
18 gpio_slow_sel[27] *270:17 0.000829344
19 gpio_slow_sel[28] *270:17 0.000358965
20 gpio_slow_sel[33] *270:9 0.000287981
21 *107:27 *270:17 0.000399603
22 *107:57 *270:17 0.00103151
23 *108:9 *270:17 0.00323589
24 *108:31 *270:17 0.000278537
25 *109:37 *270:9 0
26 *109:49 *270:15 0
27 *109:49 *270:17 0.000524609
28 *109:63 *270:17 0.0012216
29 *113:47 *270:9 0.000105239
30 *113:67 *270:9 0.000175669
31 *113:93 *270:9 0.000114393
32 *115:31 *270:9 0
33 *115:57 *270:9 0
34 *115:69 *270:9 0
35 *115:81 *270:9 0.000350585
36 *140:13 *270:17 0.00160602
37 *141:9 *270:17 0.00422337
38 *141:19 *270:17 0.00127631
39 *142:13 *270:9 0.00105538
40 *142:13 *270:17 0.000245645
41 *143:13 *270:9 0.00083296
42 *143:31 *270:9 0.000322112
43 *268:9 *270:17 0.00379464
44 *268:15 gpio_out[26] 4.17978e-05
45 *269:9 *270:9 0.133139
46 *269:9 *270:17 0.00255322
47 *269:17 *270:17 0.00932117
*RES
1 *325:io_out[2] *270:7 28.664 
2 *270:7 *270:9 1693.25 
3 *270:9 *270:15 16.5283 
4 *270:15 *270:17 81.1804 
5 *270:17 gpio_out[26] 8.37147 
*END

*D_NET *271 0.275785
*CONN
*P gpio_out[27] O
*I *325:io_out[3] O *D user_proj_timer
*CAP
1 gpio_out[27] 0.000252205
2 *325:io_out[3] 0.00695189
3 *271:17 0.01379
4 *271:15 0.0139076
5 *271:9 0.0229327
6 *271:7 0.0295148
7 *271:9 *272:9 0.0538928
8 *271:9 *273:9 0.00613874
9 *271:15 gpio_out[29] 1.76954e-05
10 *271:17 *272:17 0.0178293
11 gpio_holdover[27] gpio_out[27] 2.16266e-05
12 gpio_slow_sel[30] *271:9 0
13 gpio_vtrip_sel[29] *271:9 0
14 gpio_vtrip_sel[29] *271:15 0
15 *108:9 *271:17 0.00324115
16 *108:31 *271:17 0.000264445
17 *108:51 *271:17 0.00022183
18 *109:17 *271:17 0.00347426
19 *109:23 *271:17 0.000308784
20 *109:37 *271:17 0.000110915
21 *112:45 *271:9 0
22 *112:69 *271:9 0
23 *112:83 *271:9 0
24 *112:93 *271:9 0
25 *112:103 *271:9 0
26 *113:47 *271:9 0.000115866
27 *113:67 *271:9 0.000193407
28 *113:93 *271:9 0.000125944
29 *114:75 *271:9 0
30 *114:85 *271:9 0
31 *114:95 *271:9 0
32 *114:121 *271:9 0
33 *143:13 *271:9 0.00109646
34 *147:31 *271:9 0
35 *269:15 gpio_out[27] 0
36 *270:9 *271:9 0.0934042
37 *270:17 *271:17 0.00797864
*RES
1 *325:io_out[3] *271:7 28.7499 
2 *271:7 *271:9 1189.68 
3 *271:9 *271:15 16.7859 
4 *271:15 *271:17 81.1664 
5 *271:17 gpio_out[27] 9.01267 
*END

*D_NET *272 0.187328
*CONN
*P gpio_out[28] O
*I *325:io_out[4] O *D user_proj_timer
*CAP
1 gpio_out[28] 0.000141827
2 *325:io_out[4] 0.00701308
3 *272:17 0.0112014
4 *272:15 0.0112375
5 *272:9 0.0202761
6 *272:7 0.0271113
7 *272:9 *273:9 0.00780094
8 *272:15 gpio_out[30] 0.000102825
9 *272:17 *273:9 0.0176841
10 *272:17 *277:9 0
11 gpio_analog_en[31] *272:9 0
12 gpio_dm1[30] *272:17 0.00115485
13 gpio_holdover[28] gpio_out[28] 1.6303e-05
14 gpio_inp_dis[30] *272:17 0.00012368
15 gpio_slow_sel[29] *272:17 0.0012216
16 gpio_slow_sel[30] *272:17 0.000277518
17 gpio_slow_sel[31] *272:9 0
18 *109:49 gpio_out[28] 2.72653e-06
19 *110:19 *272:17 0.00173106
20 *110:53 *272:17 0.000122268
21 *110:63 *272:17 0.000285288
22 *110:77 *272:17 0.00144359
23 *110:101 *272:17 0.000251605
24 *112:23 *272:9 0
25 *112:33 *272:9 0
26 *112:45 *272:9 0
27 *112:69 *272:17 0.000334347
28 *112:83 *272:17 0.000393165
29 *113:47 *272:9 0.000269731
30 *113:67 *272:9 0.000450244
31 *113:93 *272:9 0.000146596
32 *142:13 *272:17 0.00137318
33 *145:13 *272:17 0.000223901
34 *145:29 *272:17 0.000657591
35 *270:9 *272:17 0.00237034
36 *270:17 *272:17 0.000186784
37 *271:9 *272:9 0.0538928
38 *271:17 *272:17 0.0178293
*RES
1 *325:io_out[4] *272:7 28.8357 
2 *272:7 *272:9 688.936 
3 *272:9 *272:15 16.5283 
4 *272:15 *272:17 80.9125 
5 *272:17 gpio_out[28] 8.41533 
*END

*D_NET *273 0.121382
*CONN
*P gpio_out[29] O
*I *325:io_out[5] O *D user_proj_timer
*CAP
1 gpio_out[29] 0.000151144
2 *325:io_out[5] 0.00712994
3 *273:9 0.0223813
4 *273:7 0.0293601
5 *273:9 *277:9 0
6 gpio_dm1[31] *273:9 0.000455053
7 gpio_holdover[29] gpio_out[29] 3.59765e-05
8 *110:27 *273:9 0.000399603
9 *110:53 *273:9 0.00102421
10 *112:11 *273:9 0.00304904
11 *113:19 *273:9 0.000754676
12 *113:27 *273:9 0.000399603
13 *113:35 *273:9 0.000399603
14 *113:47 *273:9 0.000984094
15 *113:57 *273:9 0.000517811
16 *113:67 *273:9 0.0012362
17 *113:77 *273:9 0.000251605
18 *113:93 *273:9 0.000800066
19 *143:13 *273:9 0.0019089
20 *145:13 *273:9 0.000456585
21 *146:13 *273:9 0.00249128
22 *146:27 *273:9 0.000718065
23 *268:9 *273:9 0.00494532
24 *269:9 *273:9 0.00494532
25 *270:9 *273:9 0.00494532
26 *271:9 *273:9 0.00613874
27 *271:15 gpio_out[29] 1.76954e-05
28 *272:9 *273:9 0.00780094
29 *272:17 *273:9 0.0176841
*RES
1 *325:io_out[5] *273:7 29.1363 
2 *273:7 *273:9 114.571 
3 *273:9 gpio_out[29] 8.37147 
*END

*D_NET *274 0.025418
*CONN
*P gpio_out[2] O
*I *324:io_out[0] O *D user_proj_timer
*CAP
1 gpio_out[2] 7.83942e-05
2 *324:io_out[0] 0.0110559
3 *274:9 0.0111343
4 gpio_holdover[2] gpio_out[2] 3.33328e-05
5 *111:13 *274:9 0.000660533
6 *144:13 *274:9 0.00245558
*RES
1 *324:io_out[0] *274:9 49.5389 
2 *274:9 gpio_out[2] 8.36307 
*END

*D_NET *275 0.0312632
*CONN
*P gpio_out[30] O
*I *325:io_out[6] O *D user_proj_timer
*CAP
1 gpio_out[30] 0.00626662
2 *325:io_out[6] 0.00930258
3 *275:11 0.0155692
4 gpio_holdover[30] gpio_out[30] 1.83293e-05
5 *112:69 gpio_out[30] 3.6843e-06
6 *272:15 gpio_out[30] 0.000102825
*RES
1 *325:io_out[6] *275:11 43.1507 
2 *275:11 gpio_out[30] 18.5761 
*END

*D_NET *276 0.0652695
*CONN
*P gpio_out[31] O
*I *325:io_out[7] O *D user_proj_timer
*CAP
1 gpio_out[31] 0.00717979
2 *325:io_out[7] 0.000146487
3 *276:9 0.0179217
4 *276:7 0.0108884
5 *276:9 *278:9 0.0290695
6 gpio_holdover[31] gpio_out[31] 6.35274e-05
*RES
1 *325:io_out[7] *276:7 8.3304 
2 *276:7 *276:9 66.6325 
3 *276:9 gpio_out[31] 29.2791 
*END

*D_NET *277 0.137861
*CONN
*P gpio_out[32] O
*I *325:io_out[8] O *D user_proj_timer
*CAP
1 gpio_out[32] 0.000554944
2 *325:io_out[8] 0.00670797
3 *277:9 0.062199
4 *277:7 0.068352
5 *277:9 *279:9 0
6 gpio_dm1[29] *277:9 0
7 gpio_holdover[32] gpio_out[32] 4.66586e-05
8 gpio_slow_sel[29] *277:9 0
9 *113:47 *277:9 0
10 *113:57 *277:9 0
11 *113:67 *277:9 0
12 *113:77 *277:9 0
13 *113:93 *277:9 0
14 *114:51 *277:9 0
15 *114:65 *277:9 0
16 *114:121 *277:9 0
17 *142:13 *277:9 0
18 *143:13 *277:9 0
19 *143:31 *277:9 0
20 *272:17 *277:9 0
21 *273:9 *277:9 0
*RES
1 *325:io_out[8] *277:7 27.9341 
2 *277:7 *277:9 236.025 
3 *277:9 gpio_out[32] 9.73133 
*END

*D_NET *278 0.197591
*CONN
*P gpio_out[33] O
*I *325:io_out[9] O *D user_proj_timer
*CAP
1 gpio_out[33] 0.0071173
2 *325:io_out[9] 6.53991e-05
3 *278:9 0.0841872
4 *278:7 0.0771353
5 gpio_holdover[33] gpio_out[33] 1.6303e-05
6 *276:9 *278:9 0.0290695
*RES
1 *325:io_out[9] *278:7 8.15867 
2 *278:7 *278:9 326.592 
3 *278:9 gpio_out[33] 29.4359 
*END

*D_NET *279 0.226429
*CONN
*P gpio_out[34] O
*I *325:io_out[10] O *D user_proj_timer
*CAP
1 gpio_out[34] 0.000895503
2 *325:io_out[10] 0.00627738
3 *279:9 0.106929
4 *279:7 0.112311
5 gpio_holdover[34] gpio_out[34] 1.5186e-05
6 *277:9 *279:9 0
*RES
1 *325:io_out[10] *279:7 26.5603 
2 *279:7 *279:9 417.286 
3 *279:9 gpio_out[34] 11.1033 
*END

*D_NET *280 0.0273941
*CONN
*P gpio_out[3] O
*I *324:io_out[1] O *D user_proj_timer
*CAP
1 gpio_out[3] 0.0082085
2 *324:io_out[1] 0.00547827
3 *280:7 0.0136868
4 gpio_holdover[3] gpio_out[3] 2.05329e-05
*RES
1 *324:io_out[1] *280:7 25.3059 
2 *280:7 gpio_out[3] 40.5724 
*END

*D_NET *281 0.0318282
*CONN
*P gpio_out[4] O
*I *324:io_out[2] O *D user_proj_timer
*CAP
1 gpio_out[4] 0.00665784
2 *324:io_out[2] 0.00924313
3 *281:14 0.015901
4 gpio_holdover[4] gpio_out[4] 2.62729e-05
*RES
1 *324:io_out[2] *281:14 45.0757 
2 *281:14 gpio_out[4] 29.6524 
*END

*D_NET *282 0.0379687
*CONN
*P gpio_out[5] O
*I *324:io_out[3] O *D user_proj_timer
*CAP
1 gpio_out[5] 0.00665614
2 *324:io_out[3] 0.00200907
3 *282:20 0.0164391
4 *282:12 0.011792
5 *282:12 gpio_out[6] 0.00105077
6 *282:12 *283:12 0
7 gpio_holdover[5] gpio_out[5] 2.16353e-05
8 *152:13 gpio_out[5] 0
9 *152:27 gpio_out[5] 0
*RES
1 *324:io_out[3] *282:12 15.7504 
2 *282:12 *282:20 46.1584 
3 *282:20 gpio_out[5] 21.6729 
*END

*D_NET *283 0.0412983
*CONN
*P gpio_out[6] O
*I *324:io_out[4] O *D user_proj_timer
*CAP
1 gpio_out[6] 0.00733712
2 *324:io_out[4] 0.000245829
3 *283:12 0.0198671
4 *283:8 0.0127758
5 gpio_dm2[6] gpio_out[6] 0
6 gpio_holdover[6] gpio_out[6] 2.16353e-05
7 *282:12 gpio_out[6] 0.00105077
8 *282:12 *283:12 0
*RES
1 *324:io_out[4] *283:8 9.02293 
2 *283:8 *283:12 49.3248 
3 *283:12 gpio_out[6] 32.7249 
*END

*D_NET *284 0.0477754
*CONN
*P gpio_out[7] O
*I *324:io_out[5] O *D user_proj_timer
*CAP
1 gpio_out[7] 0.00153399
2 *324:io_out[5] 0.00650752
3 *284:9 0.0147861
4 *284:7 0.0197597
5 gpio_out[7] *285:9 0.000239658
6 *284:9 *285:9 0.00188915
7 gpio_dm1[7] gpio_out[7] 0.00127048
8 gpio_holdover[7] gpio_out[7] 1.83467e-05
9 *154:9 gpio_out[7] 0.00048687
10 *154:11 gpio_out[7] 0.00128361
*RES
1 *324:io_out[5] *284:7 29.2557 
2 *284:7 *284:9 54.6075 
3 *284:9 gpio_out[7] 16.7033 
*END

*D_NET *285 0.0506742
*CONN
*P gpio_out[8] O
*I *324:io_out[6] O *D user_proj_timer
*CAP
1 gpio_out[8] 0.000137785
2 *324:io_out[6] 0.0065886
3 *285:9 0.0115096
4 *285:7 0.0179604
5 *285:9 *286:17 0.00162323
6 gpio_dm1[7] *285:9 0.00125759
7 gpio_dm1[8] *285:9 0.000260051
8 gpio_holdover[8] gpio_out[8] 2.09463e-05
9 gpio_out[7] *285:9 0.000239658
10 gpio_slow_sel[7] *285:9 0.00106514
11 gpio_slow_sel[8] *285:9 0.0012503
12 *130:21 *285:9 0.000586961
13 *130:27 *285:9 0.000277518
14 *130:31 *285:9 0.000393165
15 *131:43 *285:9 0.00128107
16 *131:63 *285:9 0.000300638
17 *154:9 *285:9 0.0026944
18 *154:11 *285:9 0.00129771
19 *155:11 *285:9 4.03631e-05
20 *284:9 *285:9 0.00188915
*RES
1 *324:io_out[6] *285:7 29.4275 
2 *285:7 *285:9 54.2565 
3 *285:9 gpio_out[8] 8.46013 
*END

*D_NET *286 0.0417603
*CONN
*P gpio_out[9] O
*I *324:io_out[7] O *D user_proj_timer
*CAP
1 gpio_out[9] 0.000220443
2 *324:io_out[7] 0.00659428
3 *286:17 0.00993605
4 *286:11 0.0163099
5 gpio_holdover[9] gpio_out[9] 4.13233e-05
6 gpio_inp_dis[8] *286:11 7.77019e-05
7 gpio_slow_sel[9] *286:17 0.000621842
8 *131:17 *286:17 0.000467796
9 *131:23 *286:17 0.000207907
10 *132:15 *286:17 0.000220879
11 *132:19 *286:17 0.000553166
12 *132:23 *286:17 0.000738261
13 *132:27 *286:17 0.000159929
14 *132:31 *286:17 0.000159929
15 *155:9 *286:17 0.0026234
16 *155:11 *286:17 0.00120428
17 *285:9 *286:17 0.00162323
*RES
1 *324:io_out[7] *286:11 29.6216 
2 *286:11 *286:17 46.1692 
3 *286:17 gpio_out[9] 8.5432 
*END
