*SPEF "ieee 1481-1999"
*DESIGN "openframe_project_wrapper"
*DATE "11:25:16 Thursday September 24, 2026"
*VENDOR "The OpenROAD Project"
*PROGRAM "OpenROAD"
*VERSION "dcf36133a369abc8f3c5e5738cd4d82e4903c0e0"
*DESIGN_FLOW "NAME_SCOPE LOCAL" "PIN_CAP NONE"
*DIVIDER /
*DELIMITER :
*BUS_DELIMITER []
*T_UNIT 1 NS
*C_UNIT 1 PF
*R_UNIT 1 OHM
*L_UNIT 1 HENRY

*NAME_MAP
*1 analog_io[0]
*2 analog_io[10]
*3 analog_io[11]
*4 analog_io[12]
*5 analog_io[13]
*6 analog_io[14]
*7 analog_io[15]
*8 analog_io[16]
*9 analog_io[17]
*10 analog_io[18]
*11 analog_io[19]
*12 analog_io[1]
*13 analog_io[20]
*14 analog_io[21]
*15 analog_io[22]
*16 analog_io[23]
*17 analog_io[24]
*18 analog_io[25]
*19 analog_io[26]
*20 analog_io[27]
*21 analog_io[28]
*22 analog_io[29]
*23 analog_io[2]
*24 analog_io[30]
*25 analog_io[31]
*26 analog_io[32]
*27 analog_io[33]
*28 analog_io[34]
*29 analog_io[35]
*30 analog_io[36]
*31 analog_io[37]
*32 analog_io[38]
*33 analog_io[39]
*34 analog_io[3]
*35 analog_io[40]
*36 analog_io[41]
*37 analog_io[42]
*38 analog_io[43]
*39 analog_io[4]
*40 analog_io[5]
*41 analog_io[6]
*42 analog_io[7]
*43 analog_io[8]
*44 analog_io[9]
*45 analog_noesd_io[0]
*46 analog_noesd_io[10]
*47 analog_noesd_io[11]
*48 analog_noesd_io[12]
*49 analog_noesd_io[13]
*50 analog_noesd_io[14]
*51 analog_noesd_io[15]
*52 analog_noesd_io[16]
*53 analog_noesd_io[17]
*54 analog_noesd_io[18]
*55 analog_noesd_io[19]
*56 analog_noesd_io[1]
*57 analog_noesd_io[20]
*58 analog_noesd_io[21]
*59 analog_noesd_io[22]
*60 analog_noesd_io[23]
*61 analog_noesd_io[24]
*62 analog_noesd_io[25]
*63 analog_noesd_io[26]
*64 analog_noesd_io[27]
*65 analog_noesd_io[28]
*66 analog_noesd_io[29]
*67 analog_noesd_io[2]
*68 analog_noesd_io[30]
*69 analog_noesd_io[31]
*70 analog_noesd_io[32]
*71 analog_noesd_io[33]
*72 analog_noesd_io[34]
*73 analog_noesd_io[35]
*74 analog_noesd_io[36]
*75 analog_noesd_io[37]
*76 analog_noesd_io[38]
*77 analog_noesd_io[39]
*78 analog_noesd_io[3]
*79 analog_noesd_io[40]
*80 analog_noesd_io[41]
*81 analog_noesd_io[42]
*82 analog_noesd_io[43]
*83 analog_noesd_io[4]
*84 analog_noesd_io[5]
*85 analog_noesd_io[6]
*86 analog_noesd_io[7]
*87 analog_noesd_io[8]
*88 analog_noesd_io[9]
*89 gpio_loopback_zero[0]
*90 gpio_loopback_zero[10]
*91 gpio_loopback_zero[11]
*92 gpio_loopback_zero[12]
*93 gpio_loopback_zero[13]
*94 gpio_loopback_zero[14]
*95 gpio_loopback_zero[15]
*96 gpio_loopback_zero[16]
*97 gpio_loopback_zero[17]
*98 gpio_loopback_zero[18]
*99 gpio_loopback_zero[19]
*100 gpio_loopback_zero[1]
*101 gpio_loopback_zero[20]
*102 gpio_loopback_zero[21]
*103 gpio_loopback_zero[22]
*104 gpio_loopback_zero[23]
*105 gpio_loopback_zero[24]
*106 gpio_loopback_zero[25]
*107 gpio_loopback_zero[26]
*108 gpio_loopback_zero[27]
*109 gpio_loopback_zero[28]
*110 gpio_loopback_zero[29]
*111 gpio_loopback_zero[2]
*112 gpio_loopback_zero[30]
*113 gpio_loopback_zero[31]
*114 gpio_loopback_zero[32]
*115 gpio_loopback_zero[33]
*116 gpio_loopback_zero[34]
*117 gpio_loopback_zero[35]
*118 gpio_loopback_zero[36]
*119 gpio_loopback_zero[37]
*120 gpio_loopback_zero[38]
*121 gpio_loopback_zero[39]
*122 gpio_loopback_zero[3]
*123 gpio_loopback_zero[40]
*124 gpio_loopback_zero[41]
*125 gpio_loopback_zero[42]
*126 gpio_loopback_zero[43]
*127 gpio_loopback_zero[4]
*128 gpio_loopback_zero[5]
*129 gpio_loopback_zero[6]
*130 gpio_loopback_zero[7]
*131 gpio_loopback_zero[8]
*132 gpio_loopback_zero[9]
*133 gpio_loopback_one[0]
*134 gpio_loopback_one[1]
*135 gpio_loopback_one[10]
*136 gpio_loopback_one[11]
*137 gpio_loopback_one[12]
*138 gpio_loopback_one[2]
*139 gpio_loopback_one[3]
*140 gpio_loopback_one[4]
*141 gpio_loopback_one[5]
*142 gpio_loopback_one[6]
*143 gpio_loopback_one[7]
*144 gpio_loopback_one[8]
*145 gpio_loopback_one[9]
*146 gpio_in[0]
*147 gpio_in[10]
*148 gpio_in[11]
*149 gpio_in[12]
*150 gpio_in[13]
*151 gpio_in[14]
*152 gpio_in[15]
*153 gpio_in[16]
*154 gpio_in[17]
*155 gpio_in[18]
*156 gpio_in[19]
*157 gpio_in[1]
*158 gpio_in[20]
*159 gpio_in[21]
*160 gpio_in[22]
*161 gpio_in[23]
*162 gpio_in[24]
*163 gpio_in[25]
*164 gpio_in[26]
*165 gpio_in[27]
*166 gpio_in[28]
*167 gpio_in[29]
*168 gpio_in[2]
*169 gpio_in[30]
*170 gpio_in[31]
*171 gpio_in[32]
*172 gpio_in[33]
*173 gpio_in[34]
*174 gpio_in[35]
*175 gpio_in[36]
*176 gpio_in[37]
*177 gpio_in[38]
*178 gpio_in[39]
*179 gpio_in[3]
*180 gpio_in[40]
*181 gpio_in[41]
*182 gpio_in[42]
*183 gpio_in[43]
*184 gpio_in[4]
*185 gpio_in[5]
*186 gpio_in[6]
*187 gpio_in[7]
*188 gpio_in[8]
*189 gpio_in[9]
*190 gpio_in_h[0]
*191 gpio_in_h[10]
*192 gpio_in_h[11]
*193 gpio_in_h[12]
*194 gpio_in_h[13]
*195 gpio_in_h[14]
*196 gpio_in_h[15]
*197 gpio_in_h[16]
*198 gpio_in_h[17]
*199 gpio_in_h[18]
*200 gpio_in_h[19]
*201 gpio_in_h[1]
*202 gpio_in_h[20]
*203 gpio_in_h[21]
*204 gpio_in_h[22]
*205 gpio_in_h[23]
*206 gpio_in_h[24]
*207 gpio_in_h[25]
*208 gpio_in_h[26]
*209 gpio_in_h[27]
*210 gpio_in_h[28]
*211 gpio_in_h[29]
*212 gpio_in_h[2]
*213 gpio_in_h[30]
*214 gpio_in_h[31]
*215 gpio_in_h[32]
*216 gpio_in_h[33]
*217 gpio_in_h[34]
*218 gpio_in_h[35]
*219 gpio_in_h[36]
*220 gpio_in_h[37]
*221 gpio_in_h[38]
*222 gpio_in_h[39]
*223 gpio_in_h[3]
*224 gpio_in_h[40]
*225 gpio_in_h[41]
*226 gpio_in_h[42]
*227 gpio_in_h[43]
*228 gpio_in_h[4]
*229 gpio_in_h[5]
*230 gpio_in_h[6]
*231 gpio_in_h[7]
*232 gpio_in_h[8]
*233 gpio_in_h[9]
*234 gpio_loopback_one[13]
*235 gpio_loopback_one[14]
*236 gpio_loopback_one[15]
*237 gpio_loopback_one[16]
*238 gpio_loopback_one[17]
*239 gpio_loopback_one[18]
*240 gpio_loopback_one[19]
*241 gpio_loopback_one[20]
*242 gpio_loopback_one[21]
*243 gpio_loopback_one[22]
*244 gpio_loopback_one[23]
*245 gpio_loopback_one[24]
*246 gpio_loopback_one[25]
*247 gpio_loopback_one[26]
*248 gpio_loopback_one[27]
*249 gpio_loopback_one[28]
*250 gpio_loopback_one[29]
*251 gpio_loopback_one[30]
*252 gpio_loopback_one[31]
*253 gpio_loopback_one[32]
*254 gpio_loopback_one[33]
*255 gpio_loopback_one[34]
*256 gpio_loopback_one[35]
*257 gpio_loopback_one[36]
*258 gpio_loopback_one[37]
*259 gpio_loopback_one[38]
*260 gpio_loopback_one[39]
*261 gpio_loopback_one[40]
*262 gpio_loopback_one[41]
*263 gpio_loopback_one[42]
*264 gpio_loopback_one[43]
*265 gpio_out[10]
*266 gpio_out[11]
*267 gpio_out[12]
*268 gpio_out[2]
*269 gpio_out[3]
*270 gpio_out[4]
*271 gpio_out[5]
*272 gpio_out[6]
*273 gpio_out[7]
*274 gpio_out[8]
*275 gpio_out[9]
*276 mask_rev[0]
*277 mask_rev[10]
*278 mask_rev[11]
*279 mask_rev[12]
*280 mask_rev[13]
*281 mask_rev[14]
*282 mask_rev[15]
*283 mask_rev[16]
*284 mask_rev[17]
*285 mask_rev[18]
*286 mask_rev[19]
*287 mask_rev[1]
*288 mask_rev[20]
*289 mask_rev[21]
*290 mask_rev[22]
*291 mask_rev[23]
*292 mask_rev[24]
*293 mask_rev[25]
*294 mask_rev[26]
*295 mask_rev[27]
*296 mask_rev[28]
*297 mask_rev[29]
*298 mask_rev[2]
*299 mask_rev[30]
*300 mask_rev[31]
*301 mask_rev[3]
*302 mask_rev[4]
*303 mask_rev[5]
*304 mask_rev[6]
*305 mask_rev[7]
*306 mask_rev[8]
*307 mask_rev[9]
*308 por_l
*309 porb_h
*310 porb_l
*311 resetb_h
*312 resetb_l
*313 mprj

*PORTS
analog_io[0] I
analog_io[10] I
analog_io[11] I
analog_io[12] I
analog_io[13] I
analog_io[14] I
analog_io[15] I
analog_io[16] I
analog_io[17] I
analog_io[18] I
analog_io[19] I
analog_io[1] I
analog_io[20] I
analog_io[21] I
analog_io[22] I
analog_io[23] I
analog_io[24] I
analog_io[25] I
analog_io[26] I
analog_io[27] I
analog_io[28] I
analog_io[29] I
analog_io[2] I
analog_io[30] I
analog_io[31] I
analog_io[32] I
analog_io[33] I
analog_io[34] I
analog_io[35] I
analog_io[36] I
analog_io[37] I
analog_io[38] I
analog_io[39] I
analog_io[3] I
analog_io[40] I
analog_io[41] I
analog_io[42] I
analog_io[43] I
analog_io[4] I
analog_io[5] I
analog_io[6] I
analog_io[7] I
analog_io[8] I
analog_io[9] I
analog_noesd_io[0] I
analog_noesd_io[10] I
analog_noesd_io[11] I
analog_noesd_io[12] I
analog_noesd_io[13] I
analog_noesd_io[14] I
analog_noesd_io[15] I
analog_noesd_io[16] I
analog_noesd_io[17] I
analog_noesd_io[18] I
analog_noesd_io[19] I
analog_noesd_io[1] I
analog_noesd_io[20] I
analog_noesd_io[21] I
analog_noesd_io[22] I
analog_noesd_io[23] I
analog_noesd_io[24] I
analog_noesd_io[25] I
analog_noesd_io[26] I
analog_noesd_io[27] I
analog_noesd_io[28] I
analog_noesd_io[29] I
analog_noesd_io[2] I
analog_noesd_io[30] I
analog_noesd_io[31] I
analog_noesd_io[32] I
analog_noesd_io[33] I
analog_noesd_io[34] I
analog_noesd_io[35] I
analog_noesd_io[36] I
analog_noesd_io[37] I
analog_noesd_io[38] I
analog_noesd_io[39] I
analog_noesd_io[3] I
analog_noesd_io[40] I
analog_noesd_io[41] I
analog_noesd_io[42] I
analog_noesd_io[43] I
analog_noesd_io[4] I
analog_noesd_io[5] I
analog_noesd_io[6] I
analog_noesd_io[7] I
analog_noesd_io[8] I
analog_noesd_io[9] I
gpio_analog_en[0] O
gpio_analog_en[10] O
gpio_analog_en[11] O
gpio_analog_en[12] O
gpio_analog_en[13] O
gpio_analog_en[14] O
gpio_analog_en[15] O
gpio_analog_en[16] O
gpio_analog_en[17] O
gpio_analog_en[18] O
gpio_analog_en[19] O
gpio_analog_en[1] O
gpio_analog_en[20] O
gpio_analog_en[21] O
gpio_analog_en[22] O
gpio_analog_en[23] O
gpio_analog_en[24] O
gpio_analog_en[25] O
gpio_analog_en[26] O
gpio_analog_en[27] O
gpio_analog_en[28] O
gpio_analog_en[29] O
gpio_analog_en[2] O
gpio_analog_en[30] O
gpio_analog_en[31] O
gpio_analog_en[32] O
gpio_analog_en[33] O
gpio_analog_en[34] O
gpio_analog_en[35] O
gpio_analog_en[36] O
gpio_analog_en[37] O
gpio_analog_en[38] O
gpio_analog_en[39] O
gpio_analog_en[3] O
gpio_analog_en[40] O
gpio_analog_en[41] O
gpio_analog_en[42] O
gpio_analog_en[43] O
gpio_analog_en[4] O
gpio_analog_en[5] O
gpio_analog_en[6] O
gpio_analog_en[7] O
gpio_analog_en[8] O
gpio_analog_en[9] O
gpio_analog_pol[0] O
gpio_analog_pol[10] O
gpio_analog_pol[11] O
gpio_analog_pol[12] O
gpio_analog_pol[13] O
gpio_analog_pol[14] O
gpio_analog_pol[15] O
gpio_analog_pol[16] O
gpio_analog_pol[17] O
gpio_analog_pol[18] O
gpio_analog_pol[19] O
gpio_analog_pol[1] O
gpio_analog_pol[20] O
gpio_analog_pol[21] O
gpio_analog_pol[22] O
gpio_analog_pol[23] O
gpio_analog_pol[24] O
gpio_analog_pol[25] O
gpio_analog_pol[26] O
gpio_analog_pol[27] O
gpio_analog_pol[28] O
gpio_analog_pol[29] O
gpio_analog_pol[2] O
gpio_analog_pol[30] O
gpio_analog_pol[31] O
gpio_analog_pol[32] O
gpio_analog_pol[33] O
gpio_analog_pol[34] O
gpio_analog_pol[35] O
gpio_analog_pol[36] O
gpio_analog_pol[37] O
gpio_analog_pol[38] O
gpio_analog_pol[39] O
gpio_analog_pol[3] O
gpio_analog_pol[40] O
gpio_analog_pol[41] O
gpio_analog_pol[42] O
gpio_analog_pol[43] O
gpio_analog_pol[4] O
gpio_analog_pol[5] O
gpio_analog_pol[6] O
gpio_analog_pol[7] O
gpio_analog_pol[8] O
gpio_analog_pol[9] O
gpio_analog_sel[0] O
gpio_analog_sel[10] O
gpio_analog_sel[11] O
gpio_analog_sel[12] O
gpio_analog_sel[13] O
gpio_analog_sel[14] O
gpio_analog_sel[15] O
gpio_analog_sel[16] O
gpio_analog_sel[17] O
gpio_analog_sel[18] O
gpio_analog_sel[19] O
gpio_analog_sel[1] O
gpio_analog_sel[20] O
gpio_analog_sel[21] O
gpio_analog_sel[22] O
gpio_analog_sel[23] O
gpio_analog_sel[24] O
gpio_analog_sel[25] O
gpio_analog_sel[26] O
gpio_analog_sel[27] O
gpio_analog_sel[28] O
gpio_analog_sel[29] O
gpio_analog_sel[2] O
gpio_analog_sel[30] O
gpio_analog_sel[31] O
gpio_analog_sel[32] O
gpio_analog_sel[33] O
gpio_analog_sel[34] O
gpio_analog_sel[35] O
gpio_analog_sel[36] O
gpio_analog_sel[37] O
gpio_analog_sel[38] O
gpio_analog_sel[39] O
gpio_analog_sel[3] O
gpio_analog_sel[40] O
gpio_analog_sel[41] O
gpio_analog_sel[42] O
gpio_analog_sel[43] O
gpio_analog_sel[4] O
gpio_analog_sel[5] O
gpio_analog_sel[6] O
gpio_analog_sel[7] O
gpio_analog_sel[8] O
gpio_analog_sel[9] O
gpio_dm0[0] O
gpio_dm0[10] O
gpio_dm0[11] O
gpio_dm0[12] O
gpio_dm0[13] O
gpio_dm0[14] O
gpio_dm0[15] O
gpio_dm0[16] O
gpio_dm0[17] O
gpio_dm0[18] O
gpio_dm0[19] O
gpio_dm0[1] O
gpio_dm0[20] O
gpio_dm0[21] O
gpio_dm0[22] O
gpio_dm0[23] O
gpio_dm0[24] O
gpio_dm0[25] O
gpio_dm0[26] O
gpio_dm0[27] O
gpio_dm0[28] O
gpio_dm0[29] O
gpio_dm0[2] O
gpio_dm0[30] O
gpio_dm0[31] O
gpio_dm0[32] O
gpio_dm0[33] O
gpio_dm0[34] O
gpio_dm0[35] O
gpio_dm0[36] O
gpio_dm0[37] O
gpio_dm0[38] O
gpio_dm0[39] O
gpio_dm0[3] O
gpio_dm0[40] O
gpio_dm0[41] O
gpio_dm0[42] O
gpio_dm0[43] O
gpio_dm0[4] O
gpio_dm0[5] O
gpio_dm0[6] O
gpio_dm0[7] O
gpio_dm0[8] O
gpio_dm0[9] O
gpio_dm1[0] O
gpio_dm1[10] O
gpio_dm1[11] O
gpio_dm1[12] O
gpio_dm1[13] O
gpio_dm1[14] O
gpio_dm1[15] O
gpio_dm1[16] O
gpio_dm1[17] O
gpio_dm1[18] O
gpio_dm1[19] O
gpio_dm1[1] O
gpio_dm1[20] O
gpio_dm1[21] O
gpio_dm1[22] O
gpio_dm1[23] O
gpio_dm1[24] O
gpio_dm1[25] O
gpio_dm1[26] O
gpio_dm1[27] O
gpio_dm1[28] O
gpio_dm1[29] O
gpio_dm1[2] O
gpio_dm1[30] O
gpio_dm1[31] O
gpio_dm1[32] O
gpio_dm1[33] O
gpio_dm1[34] O
gpio_dm1[35] O
gpio_dm1[36] O
gpio_dm1[37] O
gpio_dm1[38] O
gpio_dm1[39] O
gpio_dm1[3] O
gpio_dm1[40] O
gpio_dm1[41] O
gpio_dm1[42] O
gpio_dm1[43] O
gpio_dm1[4] O
gpio_dm1[5] O
gpio_dm1[6] O
gpio_dm1[7] O
gpio_dm1[8] O
gpio_dm1[9] O
gpio_dm2[0] O
gpio_dm2[10] O
gpio_dm2[11] O
gpio_dm2[12] O
gpio_dm2[13] O
gpio_dm2[14] O
gpio_dm2[15] O
gpio_dm2[16] O
gpio_dm2[17] O
gpio_dm2[18] O
gpio_dm2[19] O
gpio_dm2[1] O
gpio_dm2[20] O
gpio_dm2[21] O
gpio_dm2[22] O
gpio_dm2[23] O
gpio_dm2[24] O
gpio_dm2[25] O
gpio_dm2[26] O
gpio_dm2[27] O
gpio_dm2[28] O
gpio_dm2[29] O
gpio_dm2[2] O
gpio_dm2[30] O
gpio_dm2[31] O
gpio_dm2[32] O
gpio_dm2[33] O
gpio_dm2[34] O
gpio_dm2[35] O
gpio_dm2[36] O
gpio_dm2[37] O
gpio_dm2[38] O
gpio_dm2[39] O
gpio_dm2[3] O
gpio_dm2[40] O
gpio_dm2[41] O
gpio_dm2[42] O
gpio_dm2[43] O
gpio_dm2[4] O
gpio_dm2[5] O
gpio_dm2[6] O
gpio_dm2[7] O
gpio_dm2[8] O
gpio_dm2[9] O
gpio_holdover[0] O
gpio_holdover[10] O
gpio_holdover[11] O
gpio_holdover[12] O
gpio_holdover[13] O
gpio_holdover[14] O
gpio_holdover[15] O
gpio_holdover[16] O
gpio_holdover[17] O
gpio_holdover[18] O
gpio_holdover[19] O
gpio_holdover[1] O
gpio_holdover[20] O
gpio_holdover[21] O
gpio_holdover[22] O
gpio_holdover[23] O
gpio_holdover[24] O
gpio_holdover[25] O
gpio_holdover[26] O
gpio_holdover[27] O
gpio_holdover[28] O
gpio_holdover[29] O
gpio_holdover[2] O
gpio_holdover[30] O
gpio_holdover[31] O
gpio_holdover[32] O
gpio_holdover[33] O
gpio_holdover[34] O
gpio_holdover[35] O
gpio_holdover[36] O
gpio_holdover[37] O
gpio_holdover[38] O
gpio_holdover[39] O
gpio_holdover[3] O
gpio_holdover[40] O
gpio_holdover[41] O
gpio_holdover[42] O
gpio_holdover[43] O
gpio_holdover[4] O
gpio_holdover[5] O
gpio_holdover[6] O
gpio_holdover[7] O
gpio_holdover[8] O
gpio_holdover[9] O
gpio_ib_mode_sel[0] O
gpio_ib_mode_sel[10] O
gpio_ib_mode_sel[11] O
gpio_ib_mode_sel[12] O
gpio_ib_mode_sel[13] O
gpio_ib_mode_sel[14] O
gpio_ib_mode_sel[15] O
gpio_ib_mode_sel[16] O
gpio_ib_mode_sel[17] O
gpio_ib_mode_sel[18] O
gpio_ib_mode_sel[19] O
gpio_ib_mode_sel[1] O
gpio_ib_mode_sel[20] O
gpio_ib_mode_sel[21] O
gpio_ib_mode_sel[22] O
gpio_ib_mode_sel[23] O
gpio_ib_mode_sel[24] O
gpio_ib_mode_sel[25] O
gpio_ib_mode_sel[26] O
gpio_ib_mode_sel[27] O
gpio_ib_mode_sel[28] O
gpio_ib_mode_sel[29] O
gpio_ib_mode_sel[2] O
gpio_ib_mode_sel[30] O
gpio_ib_mode_sel[31] O
gpio_ib_mode_sel[32] O
gpio_ib_mode_sel[33] O
gpio_ib_mode_sel[34] O
gpio_ib_mode_sel[35] O
gpio_ib_mode_sel[36] O
gpio_ib_mode_sel[37] O
gpio_ib_mode_sel[38] O
gpio_ib_mode_sel[39] O
gpio_ib_mode_sel[3] O
gpio_ib_mode_sel[40] O
gpio_ib_mode_sel[41] O
gpio_ib_mode_sel[42] O
gpio_ib_mode_sel[43] O
gpio_ib_mode_sel[4] O
gpio_ib_mode_sel[5] O
gpio_ib_mode_sel[6] O
gpio_ib_mode_sel[7] O
gpio_ib_mode_sel[8] O
gpio_ib_mode_sel[9] O
gpio_in[0] I
gpio_in[10] I
gpio_in[11] I
gpio_in[12] I
gpio_in[13] I
gpio_in[14] I
gpio_in[15] I
gpio_in[16] I
gpio_in[17] I
gpio_in[18] I
gpio_in[19] I
gpio_in[1] I
gpio_in[20] I
gpio_in[21] I
gpio_in[22] I
gpio_in[23] I
gpio_in[24] I
gpio_in[25] I
gpio_in[26] I
gpio_in[27] I
gpio_in[28] I
gpio_in[29] I
gpio_in[2] I
gpio_in[30] I
gpio_in[31] I
gpio_in[32] I
gpio_in[33] I
gpio_in[34] I
gpio_in[35] I
gpio_in[36] I
gpio_in[37] I
gpio_in[38] I
gpio_in[39] I
gpio_in[3] I
gpio_in[40] I
gpio_in[41] I
gpio_in[42] I
gpio_in[43] I
gpio_in[4] I
gpio_in[5] I
gpio_in[6] I
gpio_in[7] I
gpio_in[8] I
gpio_in[9] I
gpio_in_h[0] I
gpio_in_h[10] I
gpio_in_h[11] I
gpio_in_h[12] I
gpio_in_h[13] I
gpio_in_h[14] I
gpio_in_h[15] I
gpio_in_h[16] I
gpio_in_h[17] I
gpio_in_h[18] I
gpio_in_h[19] I
gpio_in_h[1] I
gpio_in_h[20] I
gpio_in_h[21] I
gpio_in_h[22] I
gpio_in_h[23] I
gpio_in_h[24] I
gpio_in_h[25] I
gpio_in_h[26] I
gpio_in_h[27] I
gpio_in_h[28] I
gpio_in_h[29] I
gpio_in_h[2] I
gpio_in_h[30] I
gpio_in_h[31] I
gpio_in_h[32] I
gpio_in_h[33] I
gpio_in_h[34] I
gpio_in_h[35] I
gpio_in_h[36] I
gpio_in_h[37] I
gpio_in_h[38] I
gpio_in_h[39] I
gpio_in_h[3] I
gpio_in_h[40] I
gpio_in_h[41] I
gpio_in_h[42] I
gpio_in_h[43] I
gpio_in_h[4] I
gpio_in_h[5] I
gpio_in_h[6] I
gpio_in_h[7] I
gpio_in_h[8] I
gpio_in_h[9] I
gpio_inp_dis[0] O
gpio_inp_dis[10] O
gpio_inp_dis[11] O
gpio_inp_dis[12] O
gpio_inp_dis[13] O
gpio_inp_dis[14] O
gpio_inp_dis[15] O
gpio_inp_dis[16] O
gpio_inp_dis[17] O
gpio_inp_dis[18] O
gpio_inp_dis[19] O
gpio_inp_dis[1] O
gpio_inp_dis[20] O
gpio_inp_dis[21] O
gpio_inp_dis[22] O
gpio_inp_dis[23] O
gpio_inp_dis[24] O
gpio_inp_dis[25] O
gpio_inp_dis[26] O
gpio_inp_dis[27] O
gpio_inp_dis[28] O
gpio_inp_dis[29] O
gpio_inp_dis[2] O
gpio_inp_dis[30] O
gpio_inp_dis[31] O
gpio_inp_dis[32] O
gpio_inp_dis[33] O
gpio_inp_dis[34] O
gpio_inp_dis[35] O
gpio_inp_dis[36] O
gpio_inp_dis[37] O
gpio_inp_dis[38] O
gpio_inp_dis[39] O
gpio_inp_dis[3] O
gpio_inp_dis[40] O
gpio_inp_dis[41] O
gpio_inp_dis[42] O
gpio_inp_dis[43] O
gpio_inp_dis[4] O
gpio_inp_dis[5] O
gpio_inp_dis[6] O
gpio_inp_dis[7] O
gpio_inp_dis[8] O
gpio_inp_dis[9] O
gpio_loopback_one[0] I
gpio_loopback_one[10] I
gpio_loopback_one[11] I
gpio_loopback_one[12] I
gpio_loopback_one[13] I
gpio_loopback_one[14] I
gpio_loopback_one[15] I
gpio_loopback_one[16] I
gpio_loopback_one[17] I
gpio_loopback_one[18] I
gpio_loopback_one[19] I
gpio_loopback_one[1] I
gpio_loopback_one[20] I
gpio_loopback_one[21] I
gpio_loopback_one[22] I
gpio_loopback_one[23] I
gpio_loopback_one[24] I
gpio_loopback_one[25] I
gpio_loopback_one[26] I
gpio_loopback_one[27] I
gpio_loopback_one[28] I
gpio_loopback_one[29] I
gpio_loopback_one[2] I
gpio_loopback_one[30] I
gpio_loopback_one[31] I
gpio_loopback_one[32] I
gpio_loopback_one[33] I
gpio_loopback_one[34] I
gpio_loopback_one[35] I
gpio_loopback_one[36] I
gpio_loopback_one[37] I
gpio_loopback_one[38] I
gpio_loopback_one[39] I
gpio_loopback_one[3] I
gpio_loopback_one[40] I
gpio_loopback_one[41] I
gpio_loopback_one[42] I
gpio_loopback_one[43] I
gpio_loopback_one[4] I
gpio_loopback_one[5] I
gpio_loopback_one[6] I
gpio_loopback_one[7] I
gpio_loopback_one[8] I
gpio_loopback_one[9] I
gpio_loopback_zero[0] I
gpio_loopback_zero[10] I
gpio_loopback_zero[11] I
gpio_loopback_zero[12] I
gpio_loopback_zero[13] I
gpio_loopback_zero[14] I
gpio_loopback_zero[15] I
gpio_loopback_zero[16] I
gpio_loopback_zero[17] I
gpio_loopback_zero[18] I
gpio_loopback_zero[19] I
gpio_loopback_zero[1] I
gpio_loopback_zero[20] I
gpio_loopback_zero[21] I
gpio_loopback_zero[22] I
gpio_loopback_zero[23] I
gpio_loopback_zero[24] I
gpio_loopback_zero[25] I
gpio_loopback_zero[26] I
gpio_loopback_zero[27] I
gpio_loopback_zero[28] I
gpio_loopback_zero[29] I
gpio_loopback_zero[2] I
gpio_loopback_zero[30] I
gpio_loopback_zero[31] I
gpio_loopback_zero[32] I
gpio_loopback_zero[33] I
gpio_loopback_zero[34] I
gpio_loopback_zero[35] I
gpio_loopback_zero[36] I
gpio_loopback_zero[37] I
gpio_loopback_zero[38] I
gpio_loopback_zero[39] I
gpio_loopback_zero[3] I
gpio_loopback_zero[40] I
gpio_loopback_zero[41] I
gpio_loopback_zero[42] I
gpio_loopback_zero[43] I
gpio_loopback_zero[4] I
gpio_loopback_zero[5] I
gpio_loopback_zero[6] I
gpio_loopback_zero[7] I
gpio_loopback_zero[8] I
gpio_loopback_zero[9] I
gpio_oeb[0] O
gpio_oeb[10] O
gpio_oeb[11] O
gpio_oeb[12] O
gpio_oeb[13] O
gpio_oeb[14] O
gpio_oeb[15] O
gpio_oeb[16] O
gpio_oeb[17] O
gpio_oeb[18] O
gpio_oeb[19] O
gpio_oeb[1] O
gpio_oeb[20] O
gpio_oeb[21] O
gpio_oeb[22] O
gpio_oeb[23] O
gpio_oeb[24] O
gpio_oeb[25] O
gpio_oeb[26] O
gpio_oeb[27] O
gpio_oeb[28] O
gpio_oeb[29] O
gpio_oeb[2] O
gpio_oeb[30] O
gpio_oeb[31] O
gpio_oeb[32] O
gpio_oeb[33] O
gpio_oeb[34] O
gpio_oeb[35] O
gpio_oeb[36] O
gpio_oeb[37] O
gpio_oeb[38] O
gpio_oeb[39] O
gpio_oeb[3] O
gpio_oeb[40] O
gpio_oeb[41] O
gpio_oeb[42] O
gpio_oeb[43] O
gpio_oeb[4] O
gpio_oeb[5] O
gpio_oeb[6] O
gpio_oeb[7] O
gpio_oeb[8] O
gpio_oeb[9] O
gpio_out[0] O
gpio_out[10] O
gpio_out[11] O
gpio_out[12] O
gpio_out[13] O
gpio_out[14] O
gpio_out[15] O
gpio_out[16] O
gpio_out[17] O
gpio_out[18] O
gpio_out[19] O
gpio_out[1] O
gpio_out[20] O
gpio_out[21] O
gpio_out[22] O
gpio_out[23] O
gpio_out[24] O
gpio_out[25] O
gpio_out[26] O
gpio_out[27] O
gpio_out[28] O
gpio_out[29] O
gpio_out[2] O
gpio_out[30] O
gpio_out[31] O
gpio_out[32] O
gpio_out[33] O
gpio_out[34] O
gpio_out[35] O
gpio_out[36] O
gpio_out[37] O
gpio_out[38] O
gpio_out[39] O
gpio_out[3] O
gpio_out[40] O
gpio_out[41] O
gpio_out[42] O
gpio_out[43] O
gpio_out[4] O
gpio_out[5] O
gpio_out[6] O
gpio_out[7] O
gpio_out[8] O
gpio_out[9] O
gpio_slow_sel[0] O
gpio_slow_sel[10] O
gpio_slow_sel[11] O
gpio_slow_sel[12] O
gpio_slow_sel[13] O
gpio_slow_sel[14] O
gpio_slow_sel[15] O
gpio_slow_sel[16] O
gpio_slow_sel[17] O
gpio_slow_sel[18] O
gpio_slow_sel[19] O
gpio_slow_sel[1] O
gpio_slow_sel[20] O
gpio_slow_sel[21] O
gpio_slow_sel[22] O
gpio_slow_sel[23] O
gpio_slow_sel[24] O
gpio_slow_sel[25] O
gpio_slow_sel[26] O
gpio_slow_sel[27] O
gpio_slow_sel[28] O
gpio_slow_sel[29] O
gpio_slow_sel[2] O
gpio_slow_sel[30] O
gpio_slow_sel[31] O
gpio_slow_sel[32] O
gpio_slow_sel[33] O
gpio_slow_sel[34] O
gpio_slow_sel[35] O
gpio_slow_sel[36] O
gpio_slow_sel[37] O
gpio_slow_sel[38] O
gpio_slow_sel[39] O
gpio_slow_sel[3] O
gpio_slow_sel[40] O
gpio_slow_sel[41] O
gpio_slow_sel[42] O
gpio_slow_sel[43] O
gpio_slow_sel[4] O
gpio_slow_sel[5] O
gpio_slow_sel[6] O
gpio_slow_sel[7] O
gpio_slow_sel[8] O
gpio_slow_sel[9] O
gpio_vtrip_sel[0] O
gpio_vtrip_sel[10] O
gpio_vtrip_sel[11] O
gpio_vtrip_sel[12] O
gpio_vtrip_sel[13] O
gpio_vtrip_sel[14] O
gpio_vtrip_sel[15] O
gpio_vtrip_sel[16] O
gpio_vtrip_sel[17] O
gpio_vtrip_sel[18] O
gpio_vtrip_sel[19] O
gpio_vtrip_sel[1] O
gpio_vtrip_sel[20] O
gpio_vtrip_sel[21] O
gpio_vtrip_sel[22] O
gpio_vtrip_sel[23] O
gpio_vtrip_sel[24] O
gpio_vtrip_sel[25] O
gpio_vtrip_sel[26] O
gpio_vtrip_sel[27] O
gpio_vtrip_sel[28] O
gpio_vtrip_sel[29] O
gpio_vtrip_sel[2] O
gpio_vtrip_sel[30] O
gpio_vtrip_sel[31] O
gpio_vtrip_sel[32] O
gpio_vtrip_sel[33] O
gpio_vtrip_sel[34] O
gpio_vtrip_sel[35] O
gpio_vtrip_sel[36] O
gpio_vtrip_sel[37] O
gpio_vtrip_sel[38] O
gpio_vtrip_sel[39] O
gpio_vtrip_sel[3] O
gpio_vtrip_sel[40] O
gpio_vtrip_sel[41] O
gpio_vtrip_sel[42] O
gpio_vtrip_sel[43] O
gpio_vtrip_sel[4] O
gpio_vtrip_sel[5] O
gpio_vtrip_sel[6] O
gpio_vtrip_sel[7] O
gpio_vtrip_sel[8] O
gpio_vtrip_sel[9] O
mask_rev[0] I
mask_rev[10] I
mask_rev[11] I
mask_rev[12] I
mask_rev[13] I
mask_rev[14] I
mask_rev[15] I
mask_rev[16] I
mask_rev[17] I
mask_rev[18] I
mask_rev[19] I
mask_rev[1] I
mask_rev[20] I
mask_rev[21] I
mask_rev[22] I
mask_rev[23] I
mask_rev[24] I
mask_rev[25] I
mask_rev[26] I
mask_rev[27] I
mask_rev[28] I
mask_rev[29] I
mask_rev[2] I
mask_rev[30] I
mask_rev[31] I
mask_rev[3] I
mask_rev[4] I
mask_rev[5] I
mask_rev[6] I
mask_rev[7] I
mask_rev[8] I
mask_rev[9] I
por_l I
porb_h I
porb_l I
resetb_h I
resetb_l I

*D_NET *89 0.0112263
*CONN
*P gpio_ib_mode_sel[0] O
*P gpio_out[0] O
*P gpio_holdover[0] O
*P gpio_dm2[0] O
*P gpio_analog_sel[0] O
*P gpio_inp_dis[0] O
*P gpio_analog_pol[0] O
*P gpio_analog_en[0] O
*P gpio_dm1[0] O
*P gpio_slow_sel[0] O
*P gpio_vtrip_sel[0] O
*P gpio_loopback_zero[0] I
*CAP
1 gpio_ib_mode_sel[0] 1.92425e-05
2 gpio_out[0] 3.27581e-05
3 gpio_holdover[0] 1.8176e-05
4 gpio_dm2[0] 2.4152e-05
5 gpio_analog_sel[0] 3.76935e-05
6 gpio_inp_dis[0] 6.18294e-05
7 gpio_analog_pol[0] 4.02439e-05
8 gpio_analog_en[0] 4.06233e-05
9 gpio_dm1[0] 9.09306e-05
10 gpio_slow_sel[0] 0.000524625
11 gpio_vtrip_sel[0] 3.42372e-05
12 gpio_loopback_zero[0] 0.00142568
13 *89:55 0.000894727
14 *89:53 0.000660149
15 *89:51 0.000563742
16 *89:49 0.000762931
17 *89:43 0.000707019
18 *89:39 0.000326886
19 *89:37 0.000297526
20 *89:35 0.000557814
21 *89:23 0.00062229
22 *89:13 0.00163591
23 gpio_analog_en[0] gpio_dm0[0] 2.15929e-05
24 gpio_analog_pol[0] gpio_dm0[0] 2.15929e-05
25 gpio_ib_mode_sel[0] gpio_oeb[0] 1.98784e-05
26 gpio_ib_mode_sel[0] *133:13 5.18827e-06
27 gpio_inp_dis[0] gpio_dm0[0] 1.39525e-05
28 *89:13 gpio_dm0[0] 0.000183124
29 *89:13 gpio_oeb[0] 2.75204e-05
30 *89:13 *133:13 0.000461746
31 *89:23 gpio_dm0[0] 0.000107996
32 *89:35 gpio_dm0[0] 0.000253564
33 *89:49 gpio_dm0[0] 0.000730966
*RES
1 gpio_loopback_zero[0] *89:13 5.0508 
2 *89:13 *89:23 0.830933 
3 *89:23 gpio_vtrip_sel[0] 0.135533 
4 *89:23 *89:35 7.505 
5 *89:35 *89:37 2.175 
6 *89:37 *89:39 2.52 
7 *89:39 *89:43 3.02 
8 *89:43 *89:49 2.29487 
9 *89:49 *89:51 0.3876 
10 *89:51 *89:53 0.853733 
11 *89:53 *89:55 0.795467 
12 *89:55 gpio_slow_sel[0] 1.9554 
13 *89:55 gpio_dm1[0] 0.752067 
14 *89:53 gpio_analog_en[0] 0.752067 
15 *89:51 gpio_analog_pol[0] 0.752067 
16 *89:49 gpio_inp_dis[0] 0.752067 
17 *89:43 gpio_analog_sel[0] 0.1064 
18 *89:39 gpio_dm2[0] 0.6064 
19 *89:37 gpio_holdover[0] 0.6064 
20 *89:35 gpio_out[0] 0.6064 
21 *89:13 gpio_ib_mode_sel[0] 0.135533 
*END

*D_NET *90 0.0114444
*CONN
*P gpio_oeb[10] O
*P gpio_ib_mode_sel[10] O
*P gpio_vtrip_sel[10] O
*P gpio_holdover[10] O
*P gpio_analog_sel[10] O
*P gpio_analog_pol[10] O
*P gpio_dm0[10] O
*P gpio_slow_sel[10] O
*P gpio_analog_en[10] O
*P gpio_loopback_zero[10] I
*CAP
1 gpio_oeb[10] 2.26319e-05
2 gpio_ib_mode_sel[10] 6.9494e-06
3 gpio_vtrip_sel[10] 3.76935e-05
4 gpio_holdover[10] 2.06149e-05
5 gpio_analog_sel[10] 5.66035e-05
6 gpio_analog_pol[10] 4.24192e-05
7 gpio_dm0[10] 3.90281e-05
8 gpio_slow_sel[10] 0.00070535
9 gpio_analog_en[10] 5.43833e-05
10 gpio_loopback_zero[10] 0.000962503
11 *90:51 0.000804893
12 *90:47 0.000115857
13 *90:45 0.00045792
14 *90:41 0.000777323
15 *90:31 0.000881917
16 *90:27 0.000713476
17 *90:23 0.000342326
18 *90:13 0.00116914
19 gpio_analog_en[10] gpio_dm1[10] 0
20 gpio_analog_pol[10] gpio_inp_dis[10] 1.57861e-05
21 gpio_analog_sel[10] gpio_dm2[10] 1.14269e-05
22 gpio_holdover[10] gpio_out[10] 1.57861e-05
23 gpio_slow_sel[10] gpio_dm1[10] 0
24 gpio_slow_sel[10] gpio_out[10] 0.000263841
25 *90:13 *135:23 0.000483713
26 *90:23 *135:23 0.000107996
27 *90:31 *135:23 0.000253564
28 *90:41 gpio_dm2[10] 1.2567e-05
29 *90:41 gpio_out[10] 0.000125705
30 *90:41 *135:23 0.000250532
31 *90:45 gpio_dm1[10] 0.000239983
32 *90:45 gpio_out[10] 0.00109562
33 *90:45 *135:23 0
34 *90:45 *135:29 0.000359229
35 *90:47 gpio_dm1[10] 0.000254057
36 *90:47 gpio_out[10] 0.000232405
37 *90:51 gpio_dm1[10] 0.000253168
38 *90:51 gpio_out[10] 0.000258027
*RES
1 gpio_loopback_zero[10] *90:13 3.91207 
2 *90:13 *90:23 0.772667 
3 *90:23 *90:27 3.02 
4 *90:27 *90:31 9.575 
5 *90:31 *90:41 1.64253 
6 *90:41 *90:45 2.02793 
7 *90:45 *90:47 0.445867 
8 *90:47 *90:51 0.952833 
9 *90:51 gpio_analog_en[10] 0.1805 
10 *90:51 gpio_slow_sel[10] 12.6223 
11 *90:47 gpio_dm0[10] 0.673533 
12 *90:45 gpio_analog_pol[10] 0.673533 
13 *90:41 gpio_analog_sel[10] 0.6064 
14 *90:31 gpio_holdover[10] 0.1064 
15 *90:27 gpio_vtrip_sel[10] 0.6064 
16 *90:23 gpio_ib_mode_sel[10] 0.1064 
17 *90:13 gpio_oeb[10] 0.1064 
*END

*D_NET *91 0.0130283
*CONN
*P gpio_oeb[11] O
*P gpio_ib_mode_sel[11] O
*P gpio_vtrip_sel[11] O
*P gpio_holdover[11] O
*P gpio_analog_sel[11] O
*P gpio_analog_pol[11] O
*P gpio_dm0[11] O
*P gpio_analog_en[11] O
*P gpio_slow_sel[11] O
*P gpio_loopback_zero[11] I
*CAP
1 gpio_oeb[11] 5.82432e-05
2 gpio_ib_mode_sel[11] 2.97713e-05
3 gpio_vtrip_sel[11] 7.24795e-05
4 gpio_holdover[11] 8.15671e-05
5 gpio_analog_sel[11] 8.80811e-05
6 gpio_analog_pol[11] 6.1486e-05
7 gpio_dm0[11] 4.37557e-05
8 gpio_analog_en[11] 8.47313e-05
9 gpio_slow_sel[11] 0.000445674
10 gpio_loopback_zero[11] 0.000802532
11 *91:23 0.000575104
12 *91:21 0.000133154
13 *91:19 0.000363538
14 *91:17 0.000624589
15 *91:15 0.000713241
16 *91:13 0.000528195
17 *91:11 0.000236165
18 *91:9 0.000963972
19 gpio_analog_en[11] gpio_dm1[11] 0
20 gpio_analog_pol[11] gpio_inp_dis[11] 4.18658e-05
21 gpio_analog_sel[11] gpio_dm2[11] 4.16565e-05
22 gpio_analog_sel[11] gpio_out[11] 1.11211e-05
23 gpio_holdover[11] gpio_dm2[11] 4.16565e-05
24 gpio_holdover[11] gpio_out[11] 2.10284e-05
25 gpio_slow_sel[11] gpio_dm1[11] 0.000449545
26 gpio_slow_sel[11] gpio_out[11] 0.00109861
27 *91:9 *136:9 0.000663498
28 *91:11 *136:9 0.000232405
29 *91:13 *136:9 0.000232405
30 *91:15 *136:9 0.000863217
31 *91:17 *136:9 0.00024577
32 *91:17 *136:11 0.000224206
33 *91:19 gpio_dm1[11] 0.000191006
34 *91:19 gpio_out[11] 0.000910677
35 *91:19 *136:11 0.000909783
36 *91:21 gpio_dm1[11] 0.000232405
37 *91:21 gpio_out[11] 0.00023936
38 *91:23 gpio_dm1[11] 0.000232405
39 *91:23 gpio_out[11] 0.00023936
*RES
1 gpio_loopback_zero[11] *91:9 3.2284 
2 *91:9 *91:11 0.445867 
3 *91:11 *91:13 0.445867 
4 *91:13 *91:15 1.55293 
5 *91:15 *91:17 0.853733 
6 *91:17 *91:19 1.9608 
7 *91:19 *91:21 0.445867 
8 *91:21 *91:23 0.445867 
9 *91:23 gpio_slow_sel[11] 2.71287 
10 *91:23 gpio_analog_en[11] 0.752067 
11 *91:21 gpio_dm0[11] 0.752067 
12 *91:19 gpio_analog_pol[11] 0.752067 
13 *91:17 gpio_analog_sel[11] 0.752067 
14 *91:15 gpio_holdover[11] 0.752067 
15 *91:13 gpio_vtrip_sel[11] 0.752067 
16 *91:11 gpio_ib_mode_sel[11] 0.752067 
17 *91:9 gpio_oeb[11] 0.752067 
*END

*D_NET *92 0.012866
*CONN
*P gpio_oeb[12] O
*P gpio_ib_mode_sel[12] O
*P gpio_vtrip_sel[12] O
*P gpio_holdover[12] O
*P gpio_analog_sel[12] O
*P gpio_analog_pol[12] O
*P gpio_dm0[12] O
*P gpio_analog_en[12] O
*P gpio_slow_sel[12] O
*P gpio_loopback_zero[12] I
*CAP
1 gpio_oeb[12] 2.70563e-05
2 gpio_ib_mode_sel[12] 1.44203e-05
3 gpio_vtrip_sel[12] 6.30805e-05
4 gpio_holdover[12] 6.9742e-05
5 gpio_analog_sel[12] 8.6252e-05
6 gpio_analog_pol[12] 5.95374e-05
7 gpio_dm0[12] 5.93109e-05
8 gpio_analog_en[12] 0.000101899
9 gpio_slow_sel[12] 0.000522445
10 gpio_loopback_zero[12] 0.00086173
11 *92:29 0.000683855
12 *92:27 0.000148691
13 *92:25 0.000289966
14 *92:23 0.000394621
15 *92:21 0.000501068
16 *92:19 0.000478198
17 *92:13 0.000257388
18 *92:9 0.00104015
19 gpio_analog_pol[12] gpio_inp_dis[12] 1.57861e-05
20 gpio_analog_pol[12] gpio_out[12] 4.12258e-05
21 gpio_analog_sel[12] gpio_dm2[12] 1.78857e-05
22 gpio_holdover[12] gpio_dm2[12] 1.73241e-05
23 gpio_holdover[12] gpio_out[12] 2.41112e-05
24 gpio_slow_sel[12] gpio_dm1[12] 0.000505407
25 gpio_slow_sel[12] gpio_out[12] 0.00112565
26 *92:9 *137:9 0.00028583
27 *92:19 *137:9 0.000217609
28 *92:21 gpio_out[12] 0.000164031
29 *92:21 *137:9 0.000883426
30 *92:23 gpio_out[12] 0.000440133
31 *92:23 *137:9 0.000239561
32 *92:23 *137:11 0.000207318
33 *92:25 gpio_dm1[12] 0.000207318
34 *92:25 gpio_out[12] 0.00109493
35 *92:25 *137:11 0.000926671
36 *92:27 gpio_dm1[12] 0.000196317
37 *92:27 gpio_out[12] 0.000191458
38 *92:29 gpio_dm1[12] 0.000196317
39 *92:29 gpio_out[12] 0.000208241
*RES
1 gpio_loopback_zero[12] *92:9 15.1489 
2 *92:9 *92:13 3.02 
3 *92:13 *92:19 0.987033 
4 *92:19 *92:21 1.5884 
5 *92:21 *92:23 0.8132 
6 *92:23 *92:25 2.01907 
7 *92:25 *92:27 0.382533 
8 *92:27 *92:29 0.382533 
9 *92:29 gpio_slow_sel[12] 3.00483 
10 *92:29 gpio_analog_en[12] 2.36728 
11 *92:27 gpio_dm0[12] 0.747633 
12 *92:25 gpio_analog_pol[12] 0.738767 
13 *92:23 gpio_analog_sel[12] 0.742567 
14 *92:21 gpio_holdover[12] 0.721033 
15 *92:19 gpio_vtrip_sel[12] 0.7375 
16 *92:13 gpio_ib_mode_sel[12] 0.1064 
17 *92:9 gpio_oeb[12] 0.6064 
*END

*D_NET *93 0.00931332
*CONN
*P gpio_out[13] O
*P gpio_holdover[13] O
*P gpio_dm2[13] O
*P gpio_analog_sel[13] O
*P gpio_analog_pol[13] O
*P gpio_dm0[13] O
*P gpio_analog_en[13] O
*P gpio_dm1[13] O
*P gpio_slow_sel[13] O
*P gpio_vtrip_sel[13] O
*P gpio_ib_mode_sel[13] O
*P gpio_loopback_zero[13] I
*CAP
1 gpio_out[13] 3.27581e-05
2 gpio_holdover[13] 1.98869e-05
3 gpio_dm2[13] 1.10348e-05
4 gpio_analog_sel[13] 3.76935e-05
5 gpio_analog_pol[13] 1.74499e-05
6 gpio_dm0[13] 9.20353e-06
7 gpio_analog_en[13] 6.03145e-06
8 gpio_dm1[13] 3.84132e-05
9 gpio_slow_sel[13] 0.000434096
10 gpio_vtrip_sel[13] 3.42372e-05
11 gpio_ib_mode_sel[13] 0.0010645
12 gpio_loopback_zero[13] 0.000878621
13 *93:83 0.000731799
14 *93:79 0.000448106
15 *93:69 0.000343356
16 *93:65 0.000824539
17 *93:61 0.000950484
18 *93:51 0.000412993
19 *93:47 0.00029276
20 *93:45 0.000557814
21 *93:33 0.000588674
22 *93:24 2.85157e-05
23 gpio_analog_pol[13] gpio_inp_dis[13] 2.10284e-05
24 gpio_ib_mode_sel[13] gpio_oeb[13] 2.07817e-05
25 gpio_ib_mode_sel[13] *234:11 0.000569526
26 *93:33 gpio_inp_dis[13] 0.000107996
27 *93:45 gpio_inp_dis[13] 0.000253564
28 *93:61 gpio_inp_dis[13] 0.00023936
29 *93:65 gpio_inp_dis[13] 0.000338096
*RES
1 gpio_loopback_zero[13] gpio_ib_mode_sel[13] 17.5368 
2 gpio_ib_mode_sel[13] *93:24 0.219767 
3 gpio_ib_mode_sel[13] *93:33 0.611167 
4 *93:33 gpio_vtrip_sel[13] 0.135533 
5 *93:33 *93:45 7.505 
6 *93:45 *93:47 2.175 
7 *93:47 *93:51 3.02 
8 *93:51 *93:61 1.8132 
9 *93:61 *93:65 11.99 
10 *93:65 *93:69 3.02 
11 *93:69 *93:79 0.772667 
12 *93:79 *93:83 5.09 
13 *93:83 gpio_slow_sel[13] 7.6114 
14 *93:83 gpio_dm1[13] 0.6064 
15 *93:79 gpio_analog_en[13] 0.1064 
16 *93:69 gpio_dm0[13] 0.1064 
17 *93:65 gpio_analog_pol[13] 0.6064 
18 *93:61 gpio_analog_sel[13] 0.1064 
19 *93:51 gpio_dm2[13] 0.1064 
20 *93:47 gpio_holdover[13] 0.6064 
21 *93:45 gpio_out[13] 0.6064 
*END

*D_NET *94 0.009867
*CONN
*P gpio_vtrip_sel[14] O
*P gpio_out[14] O
*P gpio_holdover[14] O
*P gpio_dm2[14] O
*P gpio_analog_sel[14] O
*P gpio_analog_pol[14] O
*P gpio_dm0[14] O
*P gpio_analog_en[14] O
*P gpio_dm1[14] O
*P gpio_slow_sel[14] O
*P gpio_ib_mode_sel[14] O
*P gpio_loopback_zero[14] I
*CAP
1 gpio_vtrip_sel[14] 7.22752e-05
2 gpio_out[14] 2.64915e-05
3 gpio_holdover[14] 1.31807e-05
4 gpio_dm2[14] 1.36548e-05
5 gpio_analog_sel[14] 2.18774e-05
6 gpio_analog_pol[14] 1.39265e-05
7 gpio_dm0[14] 1.36548e-05
8 gpio_analog_en[14] 1.5235e-05
9 gpio_dm1[14] 3.84132e-05
10 gpio_slow_sel[14] 0.000434096
11 gpio_ib_mode_sel[14] 2.2471e-05
12 gpio_loopback_zero[14] 0.00103767
13 *94:55 0.000738275
14 *94:53 0.000432368
15 *94:51 0.000316389
16 *94:47 0.000800511
17 *94:33 0.000808462
18 *94:31 0.000309912
19 *94:29 0.000286054
20 *94:27 0.000535534
21 *94:25 0.000620715
22 *94:13 0.00122752
23 gpio_analog_pol[14] gpio_inp_dis[14] 2.10284e-05
24 gpio_ib_mode_sel[14] gpio_oeb[14] 2.39431e-05
25 *94:13 gpio_inp_dis[14] 0.000249635
26 *94:13 *235:9 0.000895973
27 *94:47 gpio_inp_dis[14] 0.000877722
*RES
1 gpio_loopback_zero[14] *94:13 4.6708 
2 *94:13 gpio_ib_mode_sel[14] 0.135533 
3 *94:13 *94:25 3.25625 
4 *94:25 *94:27 6.76875 
5 *94:27 *94:29 2.175 
6 *94:29 *94:31 2.52 
7 *94:31 *94:33 2.52 
8 *94:33 *94:47 4.52842 
9 *94:47 *94:51 3.02 
10 *94:51 *94:53 2.52 
11 *94:53 *94:55 4.59 
12 *94:55 gpio_slow_sel[14] 7.6114 
13 *94:55 gpio_dm1[14] 0.6064 
14 *94:53 gpio_analog_en[14] 0.6064 
15 *94:51 gpio_dm0[14] 0.6064 
16 *94:47 gpio_analog_pol[14] 0.1064 
17 *94:33 gpio_analog_sel[14] 0.6064 
18 *94:31 gpio_dm2[14] 0.6064 
19 *94:29 gpio_holdover[14] 0.6064 
20 *94:27 gpio_out[14] 0.6064 
21 *94:25 gpio_vtrip_sel[14] 0.780567 
*END

*D_NET *95 0.0125322
*CONN
*P gpio_slow_sel[15] O
*P gpio_dm1[15] O
*P gpio_analog_en[15] O
*P gpio_dm0[15] O
*P gpio_analog_pol[15] O
*P gpio_analog_sel[15] O
*P gpio_dm2[15] O
*P gpio_holdover[15] O
*P gpio_out[15] O
*P gpio_vtrip_sel[15] O
*P gpio_ib_mode_sel[15] O
*P gpio_loopback_zero[15] I
*CAP
1 gpio_slow_sel[15] 0.000400772
2 gpio_dm1[15] 6.91666e-05
3 gpio_analog_en[15] 0.000519125
4 gpio_dm0[15] 0.000266042
5 gpio_analog_pol[15] 0.000674746
6 gpio_analog_sel[15] 0.000674746
7 gpio_dm2[15] 0.000266042
8 gpio_holdover[15] 0.000247039
9 gpio_out[15] 0.00041052
10 gpio_vtrip_sel[15] 0.000423327
11 gpio_ib_mode_sel[15] 0.00168135
12 gpio_loopback_zero[15] 0.00155452
13 *95:83 0.000856043
14 gpio_analog_pol[15] gpio_inp_dis[15] 0.000904766
15 gpio_ib_mode_sel[15] gpio_inp_dis[15] 0.000219549
16 gpio_ib_mode_sel[15] *236:9 0.0025396
17 gpio_out[15] gpio_inp_dis[15] 0.000824883
*RES
1 gpio_loopback_zero[15] gpio_ib_mode_sel[15] 8.4593 
2 gpio_ib_mode_sel[15] gpio_vtrip_sel[15] 2.415 
3 gpio_vtrip_sel[15] gpio_out[15] 2.65333 
4 gpio_out[15] gpio_holdover[15] 2.07 
5 gpio_holdover[15] gpio_dm2[15] 2.415 
6 gpio_dm2[15] gpio_analog_sel[15] 2.415 
7 gpio_analog_sel[15] gpio_analog_pol[15] 4.7862 
8 gpio_analog_pol[15] gpio_dm0[15] 2.415 
9 gpio_dm0[15] gpio_analog_en[15] 2.415 
10 gpio_analog_en[15] *95:83 2.48047 
11 *95:83 gpio_dm1[15] 1.685 
12 *95:83 gpio_slow_sel[15] 2.672 
*END

*D_NET *96 0.0101483
*CONN
*P gpio_slow_sel[16] O
*P gpio_dm1[16] O
*P gpio_analog_en[16] O
*P gpio_dm0[16] O
*P gpio_analog_pol[16] O
*P gpio_analog_sel[16] O
*P gpio_dm2[16] O
*P gpio_holdover[16] O
*P gpio_out[16] O
*P gpio_vtrip_sel[16] O
*P gpio_ib_mode_sel[16] O
*P gpio_loopback_zero[16] I
*CAP
1 gpio_slow_sel[16] 0.000404124
2 gpio_dm1[16] 2.18948e-05
3 gpio_analog_en[16] 0.000454228
4 gpio_dm0[16] 0.000266042
5 gpio_analog_pol[16] 0.00075737
6 gpio_analog_sel[16] 0.00075737
7 gpio_dm2[16] 0.000266042
8 gpio_holdover[16] 0.000247039
9 gpio_out[16] 0.000414311
10 gpio_vtrip_sel[16] 0.000433314
11 gpio_ib_mode_sel[16] 0.001427
12 gpio_loopback_zero[16] 0.00129398
13 *96:79 0.000747226
14 gpio_analog_pol[16] gpio_inp_dis[16] 0.000904766
15 gpio_ib_mode_sel[16] gpio_inp_dis[16] 0.000179877
16 gpio_ib_mode_sel[16] gpio_oeb[16] 0
17 gpio_ib_mode_sel[16] *237:11 0.000908585
18 gpio_out[16] gpio_inp_dis[16] 0.000665116
*RES
1 gpio_loopback_zero[16] gpio_ib_mode_sel[16] 7.55937 
2 gpio_ib_mode_sel[16] gpio_vtrip_sel[16] 2.415 
3 gpio_vtrip_sel[16] gpio_out[16] 3.45527 
4 gpio_out[16] gpio_holdover[16] 2.07 
5 gpio_holdover[16] gpio_dm2[16] 2.415 
6 gpio_dm2[16] gpio_analog_sel[16] 2.415 
7 gpio_analog_sel[16] gpio_analog_pol[16] 4.541 
8 gpio_analog_pol[16] gpio_dm0[16] 2.415 
9 gpio_dm0[16] gpio_analog_en[16] 2.415 
10 gpio_analog_en[16] *96:79 1.69297 
11 *96:79 gpio_dm1[16] 0.8975 
12 *96:79 gpio_slow_sel[16] 2.55777 
*END

*D_NET *97 0.0102462
*CONN
*P gpio_slow_sel[17] O
*P gpio_dm1[17] O
*P gpio_analog_en[17] O
*P gpio_dm0[17] O
*P gpio_analog_pol[17] O
*P gpio_analog_sel[17] O
*P gpio_dm2[17] O
*P gpio_holdover[17] O
*P gpio_out[17] O
*P gpio_vtrip_sel[17] O
*P gpio_ib_mode_sel[17] O
*P gpio_loopback_zero[17] I
*CAP
1 gpio_slow_sel[17] 0.000362303
2 gpio_dm1[17] 5.99008e-05
3 gpio_analog_en[17] 0.000565389
4 gpio_dm0[17] 0.000266042
5 gpio_analog_pol[17] 0.000711394
6 gpio_analog_sel[17] 0.000711394
7 gpio_dm2[17] 0.000266042
8 gpio_holdover[17] 0.000247039
9 gpio_out[17] 0.000434336
10 gpio_vtrip_sel[17] 0.000453339
11 gpio_ib_mode_sel[17] 0.00133647
12 gpio_loopback_zero[17] 0.00120345
13 *97:91 0.000854572
14 gpio_analog_pol[17] gpio_inp_dis[17] 0.000579491
15 gpio_ib_mode_sel[17] gpio_inp_dis[17] 0.000185816
16 gpio_ib_mode_sel[17] gpio_oeb[17] 0.00146395
17 gpio_out[17] gpio_inp_dis[17] 0.000545291
*RES
1 gpio_loopback_zero[17] gpio_ib_mode_sel[17] 6.65533 
2 gpio_ib_mode_sel[17] gpio_vtrip_sel[17] 2.415 
3 gpio_vtrip_sel[17] gpio_out[17] 4.31547 
4 gpio_out[17] gpio_holdover[17] 2.07 
5 gpio_holdover[17] gpio_dm2[17] 2.415 
6 gpio_dm2[17] gpio_analog_sel[17] 2.415 
7 gpio_analog_sel[17] gpio_analog_pol[17] 4.82773 
8 gpio_analog_pol[17] gpio_dm0[17] 2.415 
9 gpio_dm0[17] gpio_analog_en[17] 2.415 
10 gpio_analog_en[17] *97:91 2.71123 
11 *97:91 gpio_dm1[17] 1.5875 
12 *97:91 gpio_slow_sel[17] 2.72797 
*END

*D_NET *98 0.0107313
*CONN
*P gpio_slow_sel[18] O
*P gpio_dm1[18] O
*P gpio_analog_en[18] O
*P gpio_dm0[18] O
*P gpio_analog_pol[18] O
*P gpio_analog_sel[18] O
*P gpio_dm2[18] O
*P gpio_holdover[18] O
*P gpio_out[18] O
*P gpio_vtrip_sel[18] O
*P gpio_ib_mode_sel[18] O
*P gpio_loopback_zero[18] I
*CAP
1 gpio_slow_sel[18] 0.000449677
2 gpio_dm1[18] 2.18948e-05
3 gpio_analog_en[18] 0.000454228
4 gpio_dm0[18] 0.000249931
5 gpio_analog_pol[18] 2.18948e-05
6 gpio_analog_sel[18] 0.000755603
7 gpio_dm2[18] 0.000266042
8 gpio_holdover[18] 0.000230928
9 gpio_out[18] 2.18948e-05
10 gpio_vtrip_sel[18] 0.000438637
11 gpio_ib_mode_sel[18] 0.00137719
12 gpio_loopback_zero[18] 0.00124417
13 *98:73 0.000792779
14 *98:53 0.000761387
15 *98:27 0.000425418
16 gpio_ib_mode_sel[18] gpio_inp_dis[18] 0.000105932
17 gpio_ib_mode_sel[18] gpio_oeb[18] 0.00142401
18 *98:27 gpio_inp_dis[18] 0.000824883
19 *98:53 gpio_inp_dis[18] 0.000864825
*RES
1 gpio_loopback_zero[18] gpio_ib_mode_sel[18] 7.4013 
2 gpio_ib_mode_sel[18] gpio_vtrip_sel[18] 2.415 
3 gpio_vtrip_sel[18] *98:27 2.60083 
4 *98:27 gpio_out[18] 0.3975 
5 *98:27 gpio_holdover[18] 1.7775 
6 gpio_holdover[18] gpio_dm2[18] 2.415 
7 gpio_dm2[18] gpio_analog_sel[18] 2.415 
8 gpio_analog_sel[18] *98:53 3.64503 
9 *98:53 gpio_analog_pol[18] 0.3975 
10 *98:53 gpio_dm0[18] 2.1225 
11 gpio_dm0[18] gpio_analog_en[18] 2.415 
12 gpio_analog_en[18] *98:73 1.69297 
13 *98:73 gpio_dm1[18] 0.8975 
14 *98:73 gpio_slow_sel[18] 2.88603 
*END

*D_NET *99 0.0125446
*CONN
*P gpio_slow_sel[19] O
*P gpio_dm1[19] O
*P gpio_analog_sel[19] O
*P gpio_analog_en[19] O
*P gpio_dm0[19] O
*P gpio_analog_pol[19] O
*P gpio_dm2[19] O
*P gpio_holdover[19] O
*P gpio_out[19] O
*P gpio_vtrip_sel[19] O
*P gpio_ib_mode_sel[19] O
*P gpio_loopback_zero[19] I
*CAP
1 gpio_slow_sel[19] 0.000389999
2 gpio_dm1[19] 7.86681e-05
3 gpio_analog_sel[19] 2.18948e-05
4 gpio_analog_en[19] 0.00053456
5 gpio_dm0[19] 0.000266042
6 gpio_analog_pol[19] 0.000694205
7 gpio_dm2[19] 0.000249931
8 gpio_holdover[19] 0.000247039
9 gpio_out[19] 0.000420986
10 gpio_vtrip_sel[19] 0.000439989
11 gpio_ib_mode_sel[19] 0.0015863
12 gpio_loopback_zero[19] 0.00145328
13 *99:79 0.000870206
14 *99:41 0.000699989
15 gpio_analog_pol[19] gpio_inp_dis[19] 0.00102459
16 gpio_ib_mode_sel[19] gpio_inp_dis[19] 0.000119825
17 gpio_ib_mode_sel[19] *240:9 0.00282197
18 gpio_out[19] gpio_inp_dis[19] 0.000625175
*RES
1 gpio_loopback_zero[19] gpio_ib_mode_sel[19] 8.2868 
2 gpio_ib_mode_sel[19] gpio_vtrip_sel[19] 2.415 
3 gpio_vtrip_sel[19] gpio_out[19] 3.742 
4 gpio_out[19] gpio_holdover[19] 2.07 
5 gpio_holdover[19] gpio_dm2[19] 2.415 
6 gpio_dm2[19] *99:41 2.1225 
7 *99:41 gpio_analog_pol[19] 3.3583 
8 gpio_analog_pol[19] gpio_dm0[19] 2.415 
9 gpio_dm0[19] gpio_analog_en[19] 2.415 
10 *99:41 gpio_analog_sel[19] 0.3975 
11 gpio_analog_en[19] *99:79 2.65297 
12 *99:79 gpio_dm1[19] 1.8575 
13 *99:79 gpio_slow_sel[19] 2.78623 
*END

*D_NET *100 0.0100944
*CONN
*P gpio_oeb[1] O
*P gpio_ib_mode_sel[1] O
*P gpio_vtrip_sel[1] O
*P gpio_holdover[1] O
*P gpio_analog_sel[1] O
*P gpio_inp_dis[1] O
*P gpio_analog_pol[1] O
*P gpio_analog_en[1] O
*P gpio_slow_sel[1] O
*P gpio_loopback_zero[1] I
*CAP
1 gpio_oeb[1] 2.66735e-05
2 gpio_ib_mode_sel[1] 1.36548e-05
3 gpio_vtrip_sel[1] 2.39386e-05
4 gpio_holdover[1] 2.46008e-05
5 gpio_analog_sel[1] 3.58771e-05
6 gpio_inp_dis[1] 2.64915e-05
7 gpio_analog_pol[1] 2.23842e-05
8 gpio_analog_en[1] 3.14103e-05
9 gpio_slow_sel[1] 0.000712306
10 gpio_loopback_zero[1] 0.00107705
11 *100:39 0.00103286
12 *100:35 0.000439508
13 *100:33 0.000682854
14 *100:31 0.000853397
15 *100:27 0.000750165
16 *100:13 0.000605253
17 *100:11 0.000309912
18 *100:9 0.00125509
19 gpio_analog_en[1] gpio_dm0[1] 1.59362e-05
20 gpio_analog_en[1] gpio_dm1[1] 0
21 gpio_analog_pol[1] gpio_dm0[1] 1.86516e-05
22 gpio_analog_sel[1] gpio_dm2[1] 1.86516e-05
23 gpio_holdover[1] gpio_dm2[1] 1.3268e-05
24 gpio_holdover[1] gpio_out[1] 1.81358e-05
25 gpio_slow_sel[1] gpio_dm0[1] 3.24887e-06
26 gpio_slow_sel[1] gpio_dm1[1] 0.000434634
27 *100:9 *134:9 0.000417767
28 *100:27 gpio_dm2[1] 1.06751e-05
29 *100:27 gpio_out[1] 7.81773e-06
30 *100:27 *134:9 0.000625971
31 *100:27 *134:11 0.00021246
32 *100:33 *134:13 0.000373788
*RES
1 gpio_loopback_zero[1] *100:9 18.8989 
2 *100:9 *100:11 2.52 
3 *100:11 *100:13 2.52 
4 *100:13 *100:27 3.73788 
5 *100:27 *100:31 5.435 
6 *100:31 *100:33 9.42 
7 *100:33 *100:35 2.175 
8 *100:35 *100:39 5.435 
9 *100:39 gpio_slow_sel[1] 4.82132 
10 *100:39 gpio_analog_en[1] 0.1064 
11 *100:35 gpio_analog_pol[1] 0.6064 
12 *100:33 gpio_inp_dis[1] 0.6064 
13 *100:31 gpio_analog_sel[1] 0.6064 
14 *100:27 gpio_holdover[1] 0.1064 
15 *100:13 gpio_vtrip_sel[1] 0.6064 
16 *100:11 gpio_ib_mode_sel[1] 0.6064 
17 *100:9 gpio_oeb[1] 0.6064 
*END

*D_NET *101 0.0121721
*CONN
*P gpio_slow_sel[20] O
*P gpio_dm1[20] O
*P gpio_analog_en[20] O
*P gpio_dm0[20] O
*P gpio_analog_pol[20] O
*P gpio_analog_sel[20] O
*P gpio_dm2[20] O
*P gpio_holdover[20] O
*P gpio_out[20] O
*P gpio_vtrip_sel[20] O
*P gpio_ib_mode_sel[20] O
*P gpio_loopback_zero[20] I
*CAP
1 gpio_slow_sel[20] 0.00053856
2 gpio_dm1[20] 6.94023e-05
3 gpio_analog_en[20] 0.000353048
4 gpio_dm0[20] 0.000266042
5 gpio_analog_pol[20] 0.000718262
6 gpio_analog_sel[20] 0.000718262
7 gpio_dm2[20] 0.000266042
8 gpio_holdover[20] 0.000247039
9 gpio_out[20] 0.000399024
10 gpio_vtrip_sel[20] 0.000418027
11 gpio_ib_mode_sel[20] 0.00161265
12 gpio_loopback_zero[20] 0.00147963
13 *101:72 0.000827989
14 gpio_analog_pol[20] gpio_inp_dis[20] 0.000824883
15 gpio_ib_mode_sel[20] gpio_inp_dis[20] 0.000105932
16 gpio_ib_mode_sel[20] gpio_oeb[20] 0.00250243
17 gpio_out[20] gpio_inp_dis[20] 0.000824883
*RES
1 gpio_loopback_zero[20] gpio_ib_mode_sel[20] 8.51297 
2 gpio_ib_mode_sel[20] gpio_vtrip_sel[20] 2.415 
3 gpio_vtrip_sel[20] gpio_out[20] 2.42833 
4 gpio_out[20] gpio_holdover[20] 2.07 
5 gpio_holdover[20] gpio_dm2[20] 2.415 
6 gpio_dm2[20] gpio_analog_sel[20] 2.415 
7 gpio_analog_sel[20] gpio_analog_pol[20] 4.7862 
8 gpio_analog_pol[20] gpio_dm0[20] 2.415 
9 gpio_dm0[20] gpio_analog_en[20] 2.415 
10 gpio_analog_en[20] *101:72 1.57413 
11 *101:72 gpio_dm1[20] 1.76 
12 *101:72 gpio_slow_sel[20] 2.96333 
*END

*D_NET *102 0.0119051
*CONN
*P gpio_slow_sel[21] O
*P gpio_dm1[21] O
*P gpio_analog_en[21] O
*P gpio_dm0[21] O
*P gpio_analog_pol[21] O
*P gpio_analog_sel[21] O
*P gpio_dm2[21] O
*P gpio_holdover[21] O
*P gpio_out[21] O
*P gpio_vtrip_sel[21] O
*P gpio_ib_mode_sel[21] O
*P gpio_loopback_zero[21] I
*CAP
1 gpio_slow_sel[21] 0.000413626
2 gpio_dm1[21] 1.23933e-05
3 gpio_analog_en[21] 0.000437821
4 gpio_dm0[21] 0.000266042
5 gpio_analog_pol[21] 0.000680405
6 gpio_analog_sel[21] 0.000680405
7 gpio_dm2[21] 0.000266042
8 gpio_holdover[21] 0.000240429
9 gpio_out[21] 1.23933e-05
10 gpio_vtrip_sel[21] 0.000475199
11 gpio_ib_mode_sel[21] 0.00157397
12 gpio_loopback_zero[21] 0.00144095
13 *102:93 0.000730819
14 *102:37 0.000461979
15 gpio_analog_pol[21] gpio_inp_dis[21] 0.000864825
16 gpio_ib_mode_sel[21] gpio_inp_dis[21] 0.000342804
17 gpio_ib_mode_sel[21] *242:9 0.00230273
18 *102:37 gpio_inp_dis[21] 0.00070228
*RES
1 gpio_loopback_zero[21] gpio_ib_mode_sel[21] 8.3797 
2 gpio_ib_mode_sel[21] gpio_vtrip_sel[21] 2.415 
3 gpio_vtrip_sel[21] *102:37 3.90353 
4 *102:37 gpio_out[21] 0.225 
5 *102:37 gpio_holdover[21] 1.95 
6 gpio_holdover[21] gpio_dm2[21] 2.415 
7 gpio_dm2[21] gpio_analog_sel[21] 2.415 
8 gpio_analog_sel[21] gpio_analog_pol[21] 4.7862 
9 gpio_analog_pol[21] gpio_dm0[21] 2.415 
10 gpio_dm0[21] gpio_analog_en[21] 2.415 
11 gpio_analog_en[21] *102:93 1.52047 
12 *102:93 gpio_dm1[21] 0.725 
13 *102:93 gpio_slow_sel[21] 2.73027 
*END

*D_NET *103 0.0119169
*CONN
*P gpio_slow_sel[22] O
*P gpio_dm1[22] O
*P gpio_analog_en[22] O
*P gpio_dm0[22] O
*P gpio_analog_pol[22] O
*P gpio_analog_sel[22] O
*P gpio_dm2[22] O
*P gpio_holdover[22] O
*P gpio_out[22] O
*P gpio_vtrip_sel[22] O
*P gpio_ib_mode_sel[22] O
*P gpio_loopback_zero[22] I
*CAP
1 gpio_slow_sel[22] 0.000402853
2 gpio_dm1[22] 2.18948e-05
3 gpio_analog_en[22] 0.000454228
4 gpio_dm0[22] 0.000266042
5 gpio_analog_pol[22] 0.000722807
6 gpio_analog_sel[22] 0.000722807
7 gpio_dm2[22] 0.000266042
8 gpio_holdover[22] 0.000247039
9 gpio_out[22] 0.000414311
10 gpio_vtrip_sel[22] 0.000417203
11 gpio_ib_mode_sel[22] 2.18948e-05
12 gpio_loopback_zero[22] 0.00140845
13 *103:87 0.000745954
14 *103:11 0.00154726
15 gpio_analog_pol[22] gpio_inp_dis[22] 0.000944708
16 gpio_out[22] gpio_inp_dis[22] 0.000665116
17 *103:11 gpio_inp_dis[22] 0.000225757
18 *103:11 *243:9 0.00242255
*RES
1 gpio_loopback_zero[22] *103:11 7.5397 
2 *103:11 gpio_ib_mode_sel[22] 0.3975 
3 *103:11 gpio_vtrip_sel[22] 2.1225 
4 gpio_vtrip_sel[22] gpio_out[22] 3.45527 
5 gpio_out[22] gpio_holdover[22] 2.07 
6 gpio_holdover[22] gpio_dm2[22] 2.415 
7 gpio_dm2[22] gpio_analog_sel[22] 2.415 
8 gpio_analog_sel[22] gpio_analog_pol[22] 3.8014 
9 gpio_analog_pol[22] gpio_dm0[22] 2.415 
10 gpio_dm0[22] gpio_analog_en[22] 2.415 
11 gpio_analog_en[22] *103:87 1.69297 
12 *103:87 gpio_dm1[22] 0.8975 
13 *103:87 gpio_slow_sel[22] 2.8445 
*END

*D_NET *104 0.0113506
*CONN
*P gpio_slow_sel[23] O
*P gpio_dm1[23] O
*P gpio_analog_en[23] O
*P gpio_dm0[23] O
*P gpio_analog_sel[23] O
*P gpio_analog_pol[23] O
*P gpio_dm2[23] O
*P gpio_holdover[23] O
*P gpio_out[23] O
*P gpio_vtrip_sel[23] O
*P gpio_ib_mode_sel[23] O
*P gpio_loopback_zero[23] I
*CAP
1 gpio_slow_sel[23] 0.000460092
2 gpio_dm1[23] 4.59778e-05
3 gpio_analog_en[23] 0.000448674
4 gpio_dm0[23] 0.000266042
5 gpio_analog_sel[23] 5.67733e-05
6 gpio_analog_pol[23] 0.000743219
7 gpio_dm2[23] 0.000247864
8 gpio_holdover[23] 0.000247039
9 gpio_out[23] 0.000434336
10 gpio_vtrip_sel[23] 0.000453339
11 gpio_ib_mode_sel[23] 0.00159145
12 gpio_loopback_zero[23] 0.00145842
13 *104:93 0.000821723
14 *104:47 0.000781814
15 gpio_analog_pol[23] gpio_inp_dis[23] 0.000579491
16 gpio_ib_mode_sel[23] gpio_inp_dis[23] 6.59906e-05
17 gpio_ib_mode_sel[23] gpio_oeb[23] 0.00210302
18 gpio_out[23] gpio_inp_dis[23] 0.000545291
*RES
1 gpio_loopback_zero[23] gpio_ib_mode_sel[23] 7.64587 
2 gpio_ib_mode_sel[23] gpio_vtrip_sel[23] 2.415 
3 gpio_vtrip_sel[23] gpio_out[23] 4.31547 
4 gpio_out[23] gpio_holdover[23] 2.07 
5 gpio_holdover[23] gpio_dm2[23] 2.415 
6 gpio_dm2[23] *104:47 2.1225 
7 *104:47 gpio_analog_pol[23] 3.3583 
8 *104:47 gpio_analog_sel[23] 1.0125 
9 gpio_analog_pol[23] gpio_dm0[23] 2.415 
10 gpio_dm0[23] gpio_analog_en[23] 2.415 
11 gpio_analog_en[23] *104:93 2.47817 
12 *104:93 gpio_dm1[23] 1.5125 
13 *104:93 gpio_slow_sel[23] 2.6743 
*END

*D_NET *105 0.0109707
*CONN
*P gpio_dm2[24] O
*P gpio_slow_sel[24] O
*P gpio_dm1[24] O
*P gpio_analog_en[24] O
*P gpio_dm0[24] O
*P gpio_analog_pol[24] O
*P gpio_analog_sel[24] O
*P gpio_holdover[24] O
*P gpio_out[24] O
*P gpio_vtrip_sel[24] O
*P gpio_ib_mode_sel[24] O
*P gpio_loopback_zero[24] I
*CAP
1 gpio_dm2[24] 7.39917e-05
2 gpio_slow_sel[24] 0.000441537
3 gpio_dm1[24] 2.82795e-05
4 gpio_analog_en[24] 2.06477e-05
5 gpio_dm0[24] 1.36679e-05
6 gpio_analog_pol[24] 2.22165e-05
7 gpio_analog_sel[24] 3.11545e-05
8 gpio_holdover[24] 1.34854e-05
9 gpio_out[24] 3.09632e-05
10 gpio_vtrip_sel[24] 2.66951e-05
11 gpio_ib_mode_sel[24] 9.20497e-06
12 gpio_loopback_zero[24] 0.0016761
13 *105:117 0.000735583
14 *105:107 0.000437781
15 *105:97 0.000309926
16 *105:87 0.000816353
17 *105:77 0.000876726
18 *105:61 0.000421685
19 *105:51 0.000299312
20 *105:41 0.000562495
21 *105:31 0.000568659
22 *105:21 0.00183019
23 gpio_analog_pol[24] gpio_inp_dis[24] 2.10208e-05
24 *105:21 gpio_inp_dis[24] 7.33938e-05
25 *105:21 gpio_oeb[24] 2.6249e-05
26 *105:21 *245:13 0.00122942
27 *105:41 gpio_inp_dis[24] 0.000263841
28 *105:77 gpio_inp_dis[24] 0.000110083
*RES
1 gpio_loopback_zero[24] *105:21 8.40512 
2 *105:21 gpio_ib_mode_sel[24] 0.6064 
3 *105:21 *105:31 2.52 
4 *105:31 gpio_vtrip_sel[24] 0.6064 
5 *105:31 *105:41 7.005 
6 *105:41 gpio_out[24] 0.6064 
7 *105:41 *105:51 2.175 
8 *105:51 gpio_holdover[24] 0.6064 
9 *105:51 *105:61 2.52 
10 *105:61 *105:77 3.49212 
11 *105:77 gpio_analog_sel[24] 0.1064 
12 *105:77 *105:87 11.99 
13 *105:87 gpio_analog_pol[24] 0.6064 
14 *105:87 *105:97 2.52 
15 *105:97 gpio_dm0[24] 0.6064 
16 *105:97 *105:107 2.52 
17 *105:107 gpio_analog_en[24] 0.6064 
18 *105:107 *105:117 4.59 
19 *105:117 gpio_dm1[24] 0.6064 
20 *105:117 gpio_slow_sel[24] 7.6114 
21 *105:61 gpio_dm2[24] 1.11467 
*END

*D_NET *106 0.0124142
*CONN
*P gpio_ib_mode_sel[25] O
*P gpio_slow_sel[25] O
*P gpio_dm1[25] O
*P gpio_analog_en[25] O
*P gpio_dm0[25] O
*P gpio_analog_pol[25] O
*P gpio_analog_sel[25] O
*P gpio_dm2[25] O
*P gpio_holdover[25] O
*P gpio_out[25] O
*P gpio_vtrip_sel[25] O
*P gpio_loopback_zero[25] I
*CAP
1 gpio_ib_mode_sel[25] 8.09108e-05
2 gpio_slow_sel[25] 0.000524647
3 gpio_dm1[25] 8.87142e-05
4 gpio_analog_en[25] 4.32146e-05
5 gpio_dm0[25] 4.96152e-05
6 gpio_analog_pol[25] 3.61985e-05
7 gpio_analog_sel[25] 2.66951e-05
8 gpio_dm2[25] 1.36679e-05
9 gpio_holdover[25] 1.34854e-05
10 gpio_out[25] 3.09632e-05
11 gpio_vtrip_sel[25] 2.96105e-05
12 gpio_loopback_zero[25] 0.0019137
13 *106:121 0.000952526
14 *106:103 0.000543947
15 *106:89 0.000363702
16 *106:75 0.000850917
17 *106:63 0.000840261
18 *106:53 0.000316402
19 *106:43 0.000292835
20 *106:33 0.000549661
21 *106:23 0.000626536
22 *106:9 0.00220082
23 gpio_analog_pol[25] gpio_inp_dis[25] 2.69681e-05
24 gpio_ib_mode_sel[25] gpio_oeb[25] 1.32603e-05
25 *106:9 *246:9 0.00103347
26 *106:23 gpio_inp_dis[25] 0.000300769
27 *106:23 gpio_oeb[25] 1.56843e-05
28 *106:33 gpio_inp_dis[25] 0.000283243
29 *106:75 gpio_inp_dis[25] 0.000351799
*RES
1 gpio_loopback_zero[25] *106:9 34.1089 
2 *106:9 *106:23 2.2467 
3 *106:23 gpio_vtrip_sel[25] 0.1064 
4 *106:23 *106:33 7.505 
5 *106:33 gpio_out[25] 0.6064 
6 *106:33 *106:43 2.175 
7 *106:43 gpio_holdover[25] 0.6064 
8 *106:43 *106:53 2.52 
9 *106:53 gpio_dm2[25] 0.6064 
10 *106:53 *106:63 2.52 
11 *106:63 gpio_analog_sel[25] 0.6064 
12 *106:63 *106:75 11.99 
13 *106:75 gpio_analog_pol[25] 0.135533 
14 *106:75 *106:89 0.9161 
15 *106:89 gpio_dm0[25] 0.7413 
16 *106:89 *106:103 0.468667 
17 *106:103 gpio_analog_en[25] 0.7185 
18 *106:103 *106:121 0.994967 
19 *106:121 gpio_dm1[25] 0.752067 
20 *106:121 gpio_slow_sel[25] 1.9554 
21 *106:9 gpio_ib_mode_sel[25] 1.47265 
*END

*D_NET *107 0.0124722
*CONN
*P gpio_slow_sel[26] O
*P gpio_dm1[26] O
*P gpio_analog_en[26] O
*P gpio_dm0[26] O
*P gpio_analog_pol[26] O
*P gpio_analog_sel[26] O
*P gpio_dm2[26] O
*P gpio_holdover[26] O
*P gpio_out[26] O
*P gpio_vtrip_sel[26] O
*P gpio_ib_mode_sel[26] O
*P gpio_loopback_zero[26] I
*CAP
1 gpio_slow_sel[26] 0.000511396
2 gpio_dm1[26] 6.05238e-05
3 gpio_analog_en[26] 4.82296e-05
4 gpio_dm0[26] 2.97865e-05
5 gpio_analog_pol[26] 6.69926e-05
6 gpio_analog_sel[26] 8.00026e-05
7 gpio_dm2[26] 5.1821e-05
8 gpio_holdover[26] 1.84939e-05
9 gpio_out[26] 3.72463e-05
10 gpio_vtrip_sel[26] 3.25986e-05
11 gpio_ib_mode_sel[26] 6.65543e-05
12 gpio_loopback_zero[26] 0.00164453
13 *107:115 0.000864342
14 *107:105 0.000516786
15 *107:95 0.000382056
16 *107:85 0.000871682
17 *107:75 0.000822141
18 *107:65 0.000329535
19 *107:53 0.000310607
20 *107:41 0.000562302
21 *107:31 0.000547609
22 *107:19 0.00182902
23 gpio_analog_pol[26] gpio_inp_dis[26] 2.10208e-05
24 gpio_ib_mode_sel[26] gpio_oeb[26] 1.7889e-05
25 *107:19 gpio_inp_dis[26] 0.000171188
26 *107:19 *247:9 0.00135821
27 *107:41 gpio_inp_dis[26] 0.000253564
28 *107:65 gpio_inp_dis[26] 0.000246117
29 *107:75 gpio_inp_dis[26] 0.000220689
30 *107:85 gpio_inp_dis[26] 0.000499293
*RES
1 gpio_loopback_zero[26] *107:19 8.0246 
2 *107:19 gpio_ib_mode_sel[26] 1.30015 
3 *107:19 *107:31 1.93125 
4 *107:31 gpio_vtrip_sel[26] 0.6064 
5 *107:31 *107:41 7.005 
6 *107:41 gpio_out[26] 0.6064 
7 *107:41 *107:53 2.675 
8 *107:53 gpio_holdover[26] 0.1064 
9 *107:53 *107:65 1.12953 
10 *107:65 gpio_dm2[26] 0.752067 
11 *107:65 *107:75 0.445867 
12 *107:75 gpio_analog_sel[26] 0.752067 
13 *107:75 *107:85 1.9608 
14 *107:85 gpio_analog_pol[26] 0.752067 
15 *107:85 *107:95 0.445867 
16 *107:95 gpio_dm0[26] 0.752067 
17 *107:95 *107:105 0.445867 
18 *107:105 gpio_analog_en[26] 0.752067 
19 *107:105 *107:115 0.795467 
20 *107:115 gpio_dm1[26] 0.752067 
21 *107:115 gpio_slow_sel[26] 1.9554 
*END

*D_NET *108 0.0122072
*CONN
*P gpio_slow_sel[27] O
*P gpio_dm1[27] O
*P gpio_analog_en[27] O
*P gpio_dm0[27] O
*P gpio_analog_pol[27] O
*P gpio_analog_sel[27] O
*P gpio_dm2[27] O
*P gpio_holdover[27] O
*P gpio_out[27] O
*P gpio_vtrip_sel[27] O
*P gpio_ib_mode_sel[27] O
*P gpio_loopback_zero[27] I
*CAP
1 gpio_slow_sel[27] 0.000446194
2 gpio_dm1[27] 4.87547e-05
3 gpio_analog_en[27] 1.7993e-05
4 gpio_dm0[27] 1.36679e-05
5 gpio_analog_pol[27] 2.22165e-05
6 gpio_analog_sel[27] 3.75393e-05
7 gpio_dm2[27] 2.06449e-05
8 gpio_holdover[27] 2.02403e-05
9 gpio_out[27] 3.71444e-05
10 gpio_vtrip_sel[27] 3.75393e-05
11 gpio_ib_mode_sel[27] 2.75746e-05
12 gpio_loopback_zero[27] 0.00151225
13 *108:117 0.000918739
14 *108:97 0.000586674
15 *108:87 0.000309926
16 *108:77 0.000829306
17 *108:67 0.000838152
18 *108:57 0.000316903
19 *108:47 0.000306067
20 *108:37 0.000568677
21 *108:27 0.000579503
22 *108:17 0.00168472
23 gpio_analog_pol[27] gpio_inp_dis[27] 2.10208e-05
24 gpio_ib_mode_sel[27] gpio_oeb[27] 8.61775e-06
25 *108:17 gpio_inp_dis[27] 0.000206353
26 *108:17 gpio_oeb[27] 6.84111e-06
27 *108:17 *248:13 0.00212233
28 *108:37 gpio_inp_dis[27] 0.000283534
29 *108:77 gpio_inp_dis[27] 0.000378056
*RES
1 gpio_loopback_zero[27] *108:17 7.86938 
2 *108:17 gpio_ib_mode_sel[27] 0.6064 
3 *108:17 *108:27 2.52 
4 *108:27 gpio_vtrip_sel[27] 0.6064 
5 *108:27 *108:37 7.005 
6 *108:37 gpio_out[27] 0.6064 
7 *108:37 *108:47 2.175 
8 *108:47 gpio_holdover[27] 0.6064 
9 *108:47 *108:57 2.52 
10 *108:57 gpio_dm2[27] 0.6064 
11 *108:57 *108:67 2.52 
12 *108:67 gpio_analog_sel[27] 0.6064 
13 *108:67 *108:77 11.49 
14 *108:77 gpio_analog_pol[27] 0.6064 
15 *108:77 *108:87 2.52 
16 *108:87 gpio_dm0[27] 0.6064 
17 *108:87 *108:97 2.52 
18 *108:97 gpio_analog_en[27] 0.6064 
19 *108:97 *108:117 2.81815 
20 *108:117 gpio_dm1[27] 0.6805 
21 *108:117 gpio_slow_sel[27] 1.84077 
*END

*D_NET *109 0.0113751
*CONN
*P gpio_slow_sel[28] O
*P gpio_dm1[28] O
*P gpio_analog_en[28] O
*P gpio_dm0[28] O
*P gpio_analog_pol[28] O
*P gpio_analog_sel[28] O
*P gpio_dm2[28] O
*P gpio_holdover[28] O
*P gpio_out[28] O
*P gpio_ib_mode_sel[28] O
*P gpio_vtrip_sel[28] O
*P gpio_loopback_zero[28] I
*CAP
1 gpio_slow_sel[28] 0.000441537
2 gpio_dm1[28] 2.82795e-05
3 gpio_analog_en[28] 2.06477e-05
4 gpio_dm0[28] 1.36679e-05
5 gpio_analog_pol[28] 2.22165e-05
6 gpio_analog_sel[28] 2.60449e-05
7 gpio_dm2[28] 1.58069e-05
8 gpio_holdover[28] 1.34854e-05
9 gpio_out[28] 3.09632e-05
10 gpio_ib_mode_sel[28] 0.000169029
11 gpio_vtrip_sel[28] 2.22321e-05
12 gpio_loopback_zero[28] 0.00170708
13 *109:123 0.000729106
14 *109:113 0.000431304
15 *109:103 0.000316402
16 *109:93 0.000835782
17 *109:83 0.000885089
18 *109:61 0.00036402
19 *109:49 0.000292835
20 *109:39 0.000556019
21 *109:27 0.000566102
22 *109:19 0.00172931
23 gpio_analog_pol[28] gpio_inp_dis[28] 2.10208e-05
24 gpio_ib_mode_sel[28] gpio_oeb[28] 2.15929e-05
25 *109:19 gpio_inp_dis[28] 0.000187616
26 *109:19 *249:13 0.00113961
27 *109:39 gpio_inp_dis[28] 0.000263841
28 *109:83 gpio_inp_dis[28] 0.00017264
29 *109:93 gpio_inp_dis[28] 0.000351799
*RES
1 gpio_loopback_zero[28] *109:19 7.55943 
2 *109:19 gpio_vtrip_sel[28] 0.1064 
3 *109:19 *109:27 0.5 
4 *109:27 gpio_ib_mode_sel[28] 3.1264 
5 *109:27 *109:39 7.005 
6 *109:39 gpio_out[28] 0.6064 
7 *109:39 *109:49 2.175 
8 *109:49 gpio_holdover[28] 0.6064 
9 *109:49 *109:61 3.02 
10 *109:61 gpio_dm2[28] 0.1064 
11 *109:61 *109:83 2.79348 
12 *109:83 gpio_analog_sel[28] 0.6064 
13 *109:83 *109:93 11.49 
14 *109:93 gpio_analog_pol[28] 0.6064 
15 *109:93 *109:103 2.52 
16 *109:103 gpio_dm0[28] 0.6064 
17 *109:103 *109:113 2.52 
18 *109:113 gpio_analog_en[28] 0.6064 
19 *109:113 *109:123 4.59 
20 *109:123 gpio_dm1[28] 0.6064 
21 *109:123 gpio_slow_sel[28] 7.6114 
*END

*D_NET *110 0.0120956
*CONN
*P gpio_slow_sel[29] O
*P gpio_dm1[29] O
*P gpio_analog_en[29] O
*P gpio_dm0[29] O
*P gpio_analog_pol[29] O
*P gpio_analog_sel[29] O
*P gpio_dm2[29] O
*P gpio_holdover[29] O
*P gpio_out[29] O
*P gpio_vtrip_sel[29] O
*P gpio_ib_mode_sel[29] O
*P gpio_loopback_zero[29] I
*CAP
1 gpio_slow_sel[29] 0.000524647
2 gpio_dm1[29] 6.05238e-05
3 gpio_analog_en[29] 5.71438e-05
4 gpio_dm0[29] 1.36679e-05
5 gpio_analog_pol[29] 2.88217e-05
6 gpio_analog_sel[29] 4.67386e-05
7 gpio_dm2[29] 2.4473e-05
8 gpio_holdover[29] 2.40695e-05
9 gpio_out[29] 5.07857e-05
10 gpio_vtrip_sel[29] 4.67386e-05
11 gpio_ib_mode_sel[29] 1.85337e-05
12 gpio_loopback_zero[29] 0.00159707
13 *110:117 0.000877593
14 *110:107 0.000575433
15 *110:95 0.000381549
16 *110:83 0.000635773
17 *110:71 0.000609014
18 *110:61 0.000212678
19 *110:51 0.000196102
20 *110:41 0.000381282
21 *110:31 0.000393407
22 *110:21 0.00171295
23 gpio_analog_pol[29] gpio_inp_dis[29] 2.10208e-05
24 *110:21 gpio_inp_dis[29] 9.31649e-05
25 *110:21 gpio_oeb[29] 3.00686e-05
26 *110:21 *250:17 0.00120245
27 *110:31 gpio_inp_dis[29] 0.000211941
28 *110:41 gpio_inp_dis[29] 0.000618661
29 *110:51 gpio_inp_dis[29] 0.000183305
30 *110:61 gpio_inp_dis[29] 0.000215769
31 *110:71 gpio_inp_dis[29] 0.000211941
32 *110:83 gpio_inp_dis[29] 0.000838253
*RES
1 gpio_loopback_zero[29] *110:21 8.45738 
2 *110:21 gpio_ib_mode_sel[29] 0.664667 
3 *110:21 *110:31 2.52 
4 *110:31 gpio_vtrip_sel[29] 0.664667 
5 *110:31 *110:41 7.005 
6 *110:41 gpio_out[29] 0.664667 
7 *110:41 *110:51 2.175 
8 *110:51 gpio_holdover[29] 0.664667 
9 *110:51 *110:61 2.52 
10 *110:61 gpio_dm2[29] 0.664667 
11 *110:61 *110:71 2.52 
12 *110:71 gpio_analog_sel[29] 0.664667 
13 *110:71 *110:83 11.94 
14 *110:83 gpio_analog_pol[29] 0.6064 
15 *110:83 *110:95 3.02 
16 *110:95 gpio_dm0[29] 0.1064 
17 *110:95 *110:107 1.12953 
18 *110:107 gpio_analog_en[29] 0.752067 
19 *110:107 *110:117 0.795467 
20 *110:117 gpio_dm1[29] 0.752067 
21 *110:117 gpio_slow_sel[29] 1.9554 
*END

*D_NET *111 0.0107529
*CONN
*P gpio_ib_mode_sel[2] O
*P gpio_vtrip_sel[2] O
*P gpio_holdover[2] O
*P gpio_analog_sel[2] O
*P gpio_analog_en[2] O
*P gpio_slow_sel[2] O
*P gpio_dm0[2] O
*P gpio_analog_pol[2] O
*P gpio_oeb[2] O
*P gpio_loopback_zero[2] I
*CAP
1 gpio_ib_mode_sel[2] 2.05605e-05
2 gpio_vtrip_sel[2] 3.75517e-05
3 gpio_holdover[2] 4.00122e-05
4 gpio_analog_sel[2] 4.787e-05
5 gpio_analog_en[2] 3.7055e-05
6 gpio_slow_sel[2] 0.000692745
7 gpio_dm0[2] 0.0001675
8 gpio_analog_pol[2] 5.69231e-05
9 gpio_oeb[2] 6.7351e-05
10 gpio_loopback_zero[2] 0.0009855
11 *111:75 0.0008421
12 *111:59 0.00053246
13 *111:45 0.000969879
14 *111:39 0.00100378
15 *111:37 0.000860045
16 *111:35 0.000713334
17 *111:33 0.000320997
18 *111:19 0.00120192
19 gpio_analog_en[2] gpio_dm1[2] 0
20 gpio_analog_pol[2] gpio_inp_dis[2] 1.01482e-05
21 gpio_analog_sel[2] gpio_dm2[2] 1.4168e-05
22 gpio_holdover[2] gpio_dm2[2] 1.55676e-05
23 gpio_holdover[2] gpio_out[2] 1.65703e-05
24 *111:19 *138:13 0.00106221
25 *111:37 *138:13 0.000283534
26 *111:45 gpio_inp_dis[2] 9.41659e-06
27 *111:45 *138:15 0.000401687
28 *111:59 gpio_dm1[2] 0.000341974
*RES
1 gpio_loopback_zero[2] *111:19 10.9614 
2 *111:19 gpio_oeb[2] 0.208367 
3 *111:19 *111:33 2.88088 
4 *111:33 *111:35 2.52 
5 *111:35 *111:37 9.075 
6 *111:37 *111:39 4.935 
7 *111:39 *111:45 11.8284 
8 *111:45 gpio_analog_pol[2] 0.212167 
9 *111:45 *111:59 1.64093 
10 *111:59 gpio_dm0[2] 0.601033 
11 *111:59 *111:75 2.16088 
12 *111:75 gpio_slow_sel[2] 12.0964 
13 *111:75 gpio_analog_en[2] 0.6064 
14 *111:39 gpio_analog_sel[2] 0.6064 
15 *111:37 gpio_holdover[2] 0.6064 
16 *111:35 gpio_vtrip_sel[2] 0.6064 
17 *111:33 gpio_ib_mode_sel[2] 0.6064 
*END

*D_NET *112 0.0115466
*CONN
*P gpio_slow_sel[30] O
*P gpio_dm1[30] O
*P gpio_analog_en[30] O
*P gpio_dm0[30] O
*P gpio_analog_pol[30] O
*P gpio_analog_sel[30] O
*P gpio_dm2[30] O
*P gpio_holdover[30] O
*P gpio_out[30] O
*P gpio_vtrip_sel[30] O
*P gpio_ib_mode_sel[30] O
*P gpio_loopback_zero[30] I
*CAP
1 gpio_slow_sel[30] 0.000441537
2 gpio_dm1[30] 2.82795e-05
3 gpio_analog_en[30] 2.06477e-05
4 gpio_dm0[30] 1.36679e-05
5 gpio_analog_pol[30] 2.90401e-05
6 gpio_analog_sel[30] 3.30763e-05
7 gpio_dm2[30] 2.36226e-05
8 gpio_holdover[30] 2.02403e-05
9 gpio_out[30] 3.71444e-05
10 gpio_vtrip_sel[30] 3.77056e-05
11 gpio_ib_mode_sel[30] 0.00015106
12 gpio_loopback_zero[30] 0.00153749
13 *112:115 0.000735583
14 *112:105 0.000431304
15 *112:95 0.000309926
16 *112:85 0.000836129
17 *112:75 0.000840165
18 *112:65 0.000396552
19 *112:49 0.000376262
20 *112:37 0.000568677
21 *112:27 0.000476209
22 *112:15 0.00172998
23 gpio_analog_pol[30] gpio_inp_dis[30] 1.65723e-05
24 gpio_ib_mode_sel[30] gpio_oeb[30] 1.34054e-05
25 *112:15 gpio_inp_dis[30] 0.000487324
26 *112:15 *251:13 0.0011317
27 *112:37 gpio_inp_dis[30] 0.000283534
28 *112:65 gpio_inp_dis[30] 0.000138091
29 *112:85 gpio_inp_dis[30] 0.000401687
*RES
1 gpio_loopback_zero[30] *112:15 7.19873 
2 *112:15 gpio_ib_mode_sel[30] 2.62015 
3 *112:15 *112:27 0.61125 
4 *112:27 gpio_vtrip_sel[30] 0.6064 
5 *112:27 *112:37 7.005 
6 *112:37 gpio_out[30] 0.6064 
7 *112:37 *112:49 2.675 
8 *112:49 gpio_holdover[30] 0.1064 
9 *112:49 *112:65 1.8132 
10 *112:65 gpio_dm2[30] 0.1064 
11 *112:65 *112:75 3.02 
12 *112:75 gpio_analog_sel[30] 0.6064 
13 *112:75 *112:85 11.49 
14 *112:85 gpio_analog_pol[30] 0.6064 
15 *112:85 *112:95 2.52 
16 *112:95 gpio_dm0[30] 0.6064 
17 *112:95 *112:105 2.52 
18 *112:105 gpio_analog_en[30] 0.6064 
19 *112:105 *112:115 4.59 
20 *112:115 gpio_dm1[30] 0.6064 
21 *112:115 gpio_slow_sel[30] 7.6114 
*END

*D_NET *113 0.011626
*CONN
*P gpio_slow_sel[31] O
*P gpio_dm1[31] O
*P gpio_analog_en[31] O
*P gpio_dm0[31] O
*P gpio_analog_pol[31] O
*P gpio_analog_sel[31] O
*P gpio_dm2[31] O
*P gpio_holdover[31] O
*P gpio_out[31] O
*P gpio_vtrip_sel[31] O
*P gpio_ib_mode_sel[31] O
*P gpio_loopback_zero[31] I
*CAP
1 gpio_slow_sel[31] 0.000524647
2 gpio_dm1[31] 6.05238e-05
3 gpio_analog_en[31] 5.71438e-05
4 gpio_dm0[31] 1.36679e-05
5 gpio_analog_pol[31] 2.22165e-05
6 gpio_analog_sel[31] 2.66951e-05
7 gpio_dm2[31] 1.36679e-05
8 gpio_holdover[31] 1.34854e-05
9 gpio_out[31] 3.09632e-05
10 gpio_vtrip_sel[31] 2.66951e-05
11 gpio_ib_mode_sel[31] 1.85537e-05
12 gpio_loopback_zero[31] 0.00135181
13 *113:111 0.000864342
14 *113:101 0.000562182
15 *113:89 0.000390902
16 *113:77 0.000829306
17 *113:67 0.000833784
18 *113:57 0.000316402
19 *113:47 0.000292835
20 *113:37 0.000556019
21 *113:27 0.000575135
22 *113:17 0.00152173
23 gpio_analog_pol[31] gpio_inp_dis[31] 2.10208e-05
24 gpio_ib_mode_sel[31] gpio_oeb[31] 1.31014e-05
25 *113:17 gpio_inp_dis[31] 0.000145781
26 *113:17 gpio_oeb[31] 1.39114e-05
27 *113:17 *252:9 0.00191388
28 *113:37 gpio_inp_dis[31] 0.000263841
29 *113:77 gpio_inp_dis[31] 0.000351799
30 *113:101 gpio_inp_dis[31] 0
*RES
1 gpio_loopback_zero[31] *113:17 7.53725 
2 *113:17 gpio_ib_mode_sel[31] 0.6064 
3 *113:17 *113:27 2.52 
4 *113:27 gpio_vtrip_sel[31] 0.6064 
5 *113:27 *113:37 7.005 
6 *113:37 gpio_out[31] 0.6064 
7 *113:37 *113:47 2.175 
8 *113:47 gpio_holdover[31] 0.6064 
9 *113:47 *113:57 2.52 
10 *113:57 gpio_dm2[31] 0.6064 
11 *113:57 *113:67 2.52 
12 *113:67 gpio_analog_sel[31] 0.6064 
13 *113:67 *113:77 11.49 
14 *113:77 gpio_analog_pol[31] 0.6064 
15 *113:77 *113:89 3.02 
16 *113:89 gpio_dm0[31] 0.1064 
17 *113:89 *113:101 1.12953 
18 *113:101 gpio_analog_en[31] 0.752067 
19 *113:101 *113:111 0.795467 
20 *113:111 gpio_dm1[31] 0.752067 
21 *113:111 gpio_slow_sel[31] 1.9554 
*END

*D_NET *114 0.0125835
*CONN
*P gpio_holdover[32] O
*P gpio_slow_sel[32] O
*P gpio_dm1[32] O
*P gpio_analog_en[32] O
*P gpio_dm0[32] O
*P gpio_analog_pol[32] O
*P gpio_analog_sel[32] O
*P gpio_dm2[32] O
*P gpio_out[32] O
*P gpio_vtrip_sel[32] O
*P gpio_ib_mode_sel[32] O
*P gpio_loopback_zero[32] I
*CAP
1 gpio_holdover[32] 7.82211e-05
2 gpio_slow_sel[32] 0.000581414
3 gpio_dm1[32] 2.28188e-05
4 gpio_analog_en[32] 2.06477e-05
5 gpio_dm0[32] 1.36679e-05
6 gpio_analog_pol[32] 2.90401e-05
7 gpio_analog_sel[32] 3.75393e-05
8 gpio_dm2[32] 2.06449e-05
9 gpio_out[32] 3.71444e-05
10 gpio_vtrip_sel[32] 6.97947e-05
11 gpio_ib_mode_sel[32] 3.66149e-05
12 gpio_loopback_zero[32] 0.00171126
13 *114:109 0.000863523
14 *114:97 0.000424828
15 *114:87 0.000309926
16 *114:77 0.000836129
17 *114:67 0.000844628
18 *114:57 0.000323379
19 *114:55 0.000364048
20 *114:45 0.0005273
21 *114:31 0.000608906
22 *114:17 0.00193129
23 gpio_analog_pol[32] gpio_inp_dis[32] 1.65723e-05
24 *114:17 gpio_inp_dis[32] 0.000191448
25 *114:17 gpio_oeb[32] 2.91467e-05
26 *114:17 *253:13 0.00171847
27 *114:31 gpio_inp_dis[32] 0.000146751
28 *114:45 gpio_inp_dis[32] 0.000386612
29 *114:77 gpio_inp_dis[32] 0.000401687
*RES
1 gpio_loopback_zero[32] *114:17 7.77667 
2 *114:17 gpio_ib_mode_sel[32] 0.205833 
3 *114:17 *114:31 1.1327 
4 *114:31 gpio_vtrip_sel[32] 0.752067 
5 *114:31 *114:45 1.887 
6 *114:45 gpio_out[32] 0.1064 
7 *114:45 *114:55 2.675 
8 *114:55 *114:57 2.52 
9 *114:57 gpio_dm2[32] 0.6064 
10 *114:57 *114:67 2.52 
11 *114:67 gpio_analog_sel[32] 0.6064 
12 *114:67 *114:77 11.49 
13 *114:77 gpio_analog_pol[32] 0.6064 
14 *114:77 *114:87 2.52 
15 *114:87 gpio_dm0[32] 0.6064 
16 *114:87 *114:97 2.52 
17 *114:97 gpio_analog_en[32] 0.6064 
18 *114:97 *114:109 5.09 
19 *114:109 gpio_dm1[32] 0.1064 
20 *114:109 gpio_slow_sel[32] 7.29455 
21 *114:55 gpio_holdover[32] 1.11467 
*END

*D_NET *115 0.0110126
*CONN
*P gpio_slow_sel[33] O
*P gpio_dm1[33] O
*P gpio_analog_en[33] O
*P gpio_dm0[33] O
*P gpio_analog_pol[33] O
*P gpio_analog_sel[33] O
*P gpio_dm2[33] O
*P gpio_holdover[33] O
*P gpio_out[33] O
*P gpio_vtrip_sel[33] O
*P gpio_ib_mode_sel[33] O
*P gpio_loopback_zero[33] I
*CAP
1 gpio_slow_sel[33] 0.000441537
2 gpio_dm1[33] 2.82795e-05
3 gpio_analog_en[33] 2.06477e-05
4 gpio_dm0[33] 1.71913e-05
5 gpio_analog_pol[33] 1.73322e-05
6 gpio_analog_sel[33] 1.94564e-05
7 gpio_dm2[33] 1.36679e-05
8 gpio_holdover[33] 1.34854e-05
9 gpio_out[33] 3.09632e-05
10 gpio_vtrip_sel[33] 2.22321e-05
11 gpio_ib_mode_sel[33] 3.41394e-05
12 gpio_loopback_zero[33] 0.00190437
13 *115:123 0.000735583
14 *115:113 0.000437781
15 *115:103 0.000319925
16 *115:93 0.000805904
17 *115:71 0.000808028
18 *115:61 0.000309926
19 *115:51 0.000286359
20 *115:41 0.000556019
21 *115:31 0.000561268
22 *115:17 0.00208047
23 gpio_analog_pol[33] gpio_inp_dis[33] 2.39271e-05
24 gpio_ib_mode_sel[33] gpio_oeb[33] 4.08084e-05
25 *115:17 gpio_inp_dis[33] 1.21073e-05
26 *115:17 *254:13 0.000607125
27 *115:93 gpio_inp_dis[33] 0.000864092
*RES
1 gpio_loopback_zero[33] *115:17 7.54613 
2 *115:17 gpio_ib_mode_sel[33] 0.196967 
3 *115:17 *115:31 2.88125 
4 *115:31 gpio_vtrip_sel[33] 0.6064 
5 *115:31 *115:41 7.005 
6 *115:41 gpio_out[33] 0.6064 
7 *115:41 *115:51 2.175 
8 *115:51 gpio_holdover[33] 0.6064 
9 *115:51 *115:61 2.52 
10 *115:61 gpio_dm2[33] 0.6064 
11 *115:61 *115:71 2.52 
12 *115:71 gpio_analog_sel[33] 0.6064 
13 *115:71 *115:93 4.55958 
14 *115:93 gpio_analog_pol[33] 0.1064 
15 *115:93 *115:103 3.02 
16 *115:103 gpio_dm0[33] 0.6064 
17 *115:103 *115:113 2.52 
18 *115:113 gpio_analog_en[33] 0.6064 
19 *115:113 *115:123 4.59 
20 *115:123 gpio_dm1[33] 0.6064 
21 *115:123 gpio_slow_sel[33] 7.6114 
*END

*D_NET *116 0.0117918
*CONN
*P gpio_analog_pol[34] O
*P gpio_analog_en[34] O
*P gpio_slow_sel[34] O
*P gpio_dm1[34] O
*P gpio_dm0[34] O
*P gpio_analog_sel[34] O
*P gpio_dm2[34] O
*P gpio_holdover[34] O
*P gpio_out[34] O
*P gpio_vtrip_sel[34] O
*P gpio_ib_mode_sel[34] O
*P gpio_loopback_zero[34] I
*CAP
1 gpio_analog_pol[34] 8.01369e-05
2 gpio_analog_en[34] 4.02703e-05
3 gpio_slow_sel[34] 0.000524647
4 gpio_dm1[34] 6.78284e-05
5 gpio_dm0[34] 1.36679e-05
6 gpio_analog_sel[34] 2.66951e-05
7 gpio_dm2[34] 1.36679e-05
8 gpio_holdover[34] 1.34854e-05
9 gpio_out[34] 3.09632e-05
10 gpio_vtrip_sel[34] 3.67723e-05
11 gpio_ib_mode_sel[34] 2.63501e-05
12 gpio_loopback_zero[34] 0.00164336
13 *116:101 0.00092989
14 *116:95 0.00054049
15 *116:83 0.000321363
16 *116:81 0.000874273
17 *116:71 0.000820831
18 *116:61 0.000309926
19 *116:51 0.000299312
20 *116:41 0.000562495
21 *116:31 0.000579632
22 *116:21 0.00181549
23 gpio_analog_pol[34] gpio_inp_dis[34] 3.35195e-05
24 gpio_ib_mode_sel[34] gpio_oeb[34] 1.7119e-05
25 *116:21 gpio_inp_dis[34] 0.000180165
26 *116:21 gpio_oeb[34] 5.91233e-06
27 *116:21 *255:9 0.00134595
28 *116:41 gpio_inp_dis[34] 0.000263841
29 *116:81 gpio_inp_dis[34] 0.000373788
*RES
1 gpio_loopback_zero[34] *116:21 7.42643 
2 *116:21 gpio_ib_mode_sel[34] 0.1064 
3 *116:21 *116:31 3.02 
4 *116:31 gpio_vtrip_sel[34] 0.6064 
5 *116:31 *116:41 7.005 
6 *116:41 gpio_out[34] 0.6064 
7 *116:41 *116:51 2.175 
8 *116:51 gpio_holdover[34] 0.6064 
9 *116:51 *116:61 2.52 
10 *116:61 gpio_dm2[34] 0.6064 
11 *116:61 *116:71 2.52 
12 *116:71 gpio_analog_sel[34] 0.6064 
13 *116:71 *116:81 11.49 
14 *116:81 *116:83 2.52 
15 *116:83 gpio_dm0[34] 0.6064 
16 *116:83 *116:95 3.18875 
17 *116:95 *116:101 1.45063 
18 *116:101 gpio_dm1[34] 0.752067 
19 *116:101 gpio_slow_sel[34] 1.9554 
20 *116:95 gpio_analog_en[34] 0.202033 
21 *116:81 gpio_analog_pol[34] 1.11467 
*END

*D_NET *117 0.0130717
*CONN
*P gpio_slow_sel[35] O
*P gpio_dm1[35] O
*P gpio_analog_en[35] O
*P gpio_dm0[35] O
*P gpio_analog_pol[35] O
*P gpio_analog_sel[35] O
*P gpio_dm2[35] O
*P gpio_holdover[35] O
*P gpio_out[35] O
*P gpio_vtrip_sel[35] O
*P gpio_ib_mode_sel[35] O
*P gpio_loopback_zero[35] I
*CAP
1 gpio_slow_sel[35] 0.000497861
2 gpio_dm1[35] 5.89812e-05
3 gpio_analog_en[35] 7.53235e-05
4 gpio_dm0[35] 2.47948e-05
5 gpio_analog_pol[35] 1.75461e-05
6 gpio_analog_sel[35] 8.00026e-05
7 gpio_dm2[35] 4.37709e-05
8 gpio_holdover[35] 4.30307e-05
9 gpio_out[35] 8.37131e-05
10 gpio_vtrip_sel[35] 0.000101907
11 gpio_ib_mode_sel[35] 9.55213e-06
12 gpio_loopback_zero[35] 0.00164657
13 *117:131 0.000833517
14 *117:117 0.00064895
15 *117:103 0.000480695
16 *117:89 0.000731098
17 *117:75 0.00074819
18 *117:65 0.000270939
19 *117:55 0.000249878
20 *117:45 0.000446274
21 *117:31 0.000538122
22 *117:19 0.00182304
23 gpio_analog_pol[35] gpio_inp_dis[35] 2.02442e-05
24 *117:19 gpio_inp_dis[35] 0.000112641
25 *117:19 gpio_oeb[35] 1.97816e-05
26 *117:19 *256:13 0.00106391
27 *117:31 gpio_inp_dis[35] 0.000232203
28 *117:31 gpio_oeb[35] 3.96527e-06
29 *117:45 gpio_inp_dis[35] 0.000660846
30 *117:55 gpio_inp_dis[35] 0.000192059
31 *117:65 gpio_inp_dis[35] 0.000220689
32 *117:75 gpio_inp_dis[35] 0.000220689
33 *117:89 gpio_inp_dis[35] 0.000870884
*RES
1 gpio_loopback_zero[35] *117:19 7.34663 
2 *117:19 gpio_ib_mode_sel[35] 0.1064 
3 *117:19 *117:31 1.11497 
4 *117:31 gpio_vtrip_sel[35] 0.842633 
5 *117:31 *117:45 1.2179 
6 *117:45 gpio_out[35] 0.752067 
7 *117:45 *117:55 0.3876 
8 *117:55 gpio_holdover[35] 0.752067 
9 *117:55 *117:65 0.445867 
10 *117:65 gpio_dm2[35] 0.752067 
11 *117:65 *117:75 0.445867 
12 *117:75 gpio_analog_sel[35] 0.752067 
13 *117:75 *117:89 2.64447 
14 *117:89 gpio_analog_pol[35] 0.1064 
15 *117:89 *117:103 0.709967 
16 *117:103 gpio_dm0[35] 0.1691 
17 *117:103 *117:117 1.12193 
18 *117:117 gpio_analog_en[35] 0.795767 
19 *117:117 *117:131 0.727067 
20 *117:131 gpio_dm1[35] 0.727367 
21 *117:131 gpio_slow_sel[35] 1.89903 
*END

*D_NET *118 0.0122076
*CONN
*P gpio_slow_sel[36] O
*P gpio_dm1[36] O
*P gpio_analog_en[36] O
*P gpio_dm0[36] O
*P gpio_analog_pol[36] O
*P gpio_analog_sel[36] O
*P gpio_dm2[36] O
*P gpio_holdover[36] O
*P gpio_out[36] O
*P gpio_vtrip_sel[36] O
*P gpio_ib_mode_sel[36] O
*P gpio_loopback_zero[36] I
*CAP
1 gpio_slow_sel[36] 0.000441537
2 gpio_dm1[36] 2.22321e-05
3 gpio_analog_en[36] 1.85117e-05
4 gpio_dm0[36] 4.46297e-06
5 gpio_analog_pol[36] 2.22165e-05
6 gpio_analog_sel[36] 3.75393e-05
7 gpio_dm2[36] 2.06449e-05
8 gpio_holdover[36] 2.02403e-05
9 gpio_out[36] 3.71444e-05
10 gpio_vtrip_sel[36] 3.6682e-05
11 gpio_ib_mode_sel[36] 4.36931e-05
12 gpio_loopback_zero[36] 0.00212452
13 *118:129 0.00088277
14 *118:109 0.000616541
15 *118:93 0.000334858
16 *118:81 0.000829296
17 *118:71 0.000844619
18 *118:61 0.000316903
19 *118:51 0.000293114
20 *118:41 0.0005622
21 *118:31 0.000584227
22 *118:19 0.00231868
23 gpio_analog_pol[36] gpio_inp_dis[36] 2.10208e-05
24 gpio_ib_mode_sel[36] gpio_oeb[36] 1.59213e-05
25 *118:19 gpio_inp_dis[36] 0.000281116
26 *118:19 *257:9 0.000838968
27 *118:41 gpio_inp_dis[36] 0.000283534
28 *118:81 gpio_inp_dis[36] 0.000354426
*RES
1 gpio_loopback_zero[36] *118:19 7.55247 
2 *118:19 gpio_ib_mode_sel[36] 0.162767 
3 *118:19 *118:31 2.91125 
4 *118:31 gpio_vtrip_sel[36] 0.6064 
5 *118:31 *118:41 7.005 
6 *118:41 gpio_out[36] 0.6064 
7 *118:41 *118:51 2.175 
8 *118:51 gpio_holdover[36] 0.6064 
9 *118:51 *118:61 2.52 
10 *118:61 gpio_dm2[36] 0.6064 
11 *118:61 *118:71 2.52 
12 *118:71 gpio_analog_sel[36] 0.6064 
13 *118:71 *118:81 11.49 
14 *118:81 gpio_analog_pol[36] 0.6064 
15 *118:81 *118:93 3.02 
16 *118:93 gpio_dm0[36] 0.1064 
17 *118:93 *118:109 0.772667 
18 *118:109 gpio_analog_en[36] 0.1064 
19 *118:109 *118:129 3.26335 
20 *118:129 gpio_dm1[36] 0.6064 
21 *118:129 gpio_slow_sel[36] 7.6114 
*END

*D_NET *119 0.0124811
*CONN
*P gpio_ib_mode_sel[37] O
*P gpio_dm2[37] O
*P gpio_slow_sel[37] O
*P gpio_dm1[37] O
*P gpio_analog_en[37] O
*P gpio_dm0[37] O
*P gpio_analog_pol[37] O
*P gpio_analog_sel[37] O
*P gpio_holdover[37] O
*P gpio_out[37] O
*P gpio_vtrip_sel[37] O
*P gpio_loopback_zero[37] I
*CAP
1 gpio_ib_mode_sel[37] 0.000100736
2 gpio_dm2[37] 4.70253e-05
3 gpio_slow_sel[37] 0.00048005
4 gpio_dm1[37] 3.99859e-05
5 gpio_analog_en[37] 3.23272e-05
6 gpio_dm0[37] 2.99333e-05
7 gpio_analog_pol[37] 5.88943e-05
8 gpio_analog_sel[37] 6.26465e-05
9 gpio_holdover[37] 2.01977e-05
10 gpio_out[37] 3.71444e-05
11 gpio_vtrip_sel[37] 3.75393e-05
12 gpio_loopback_zero[37] 0.00140422
13 *119:105 0.000812458
14 *119:93 0.000487633
15 *119:81 0.00037359
16 *119:67 0.000761484
17 *119:55 0.00070434
18 *119:51 0.000323123
19 *119:37 0.000310879
20 *119:27 0.000568677
21 *119:17 0.000659266
22 *119:11 0.00172961
23 gpio_analog_pol[37] gpio_inp_dis[37] 4.1859e-05
24 gpio_ib_mode_sel[37] gpio_oeb[37] 9.40725e-06
25 *119:11 gpio_inp_dis[37] 0.000119384
26 *119:11 *258:13 0.00170255
27 *119:17 gpio_oeb[37] 1.71405e-05
28 *119:27 gpio_inp_dis[37] 0.000283534
29 *119:55 gpio_inp_dis[37] 0.00025452
30 *119:67 gpio_inp_dis[37] 0.000970891
*RES
1 gpio_loopback_zero[37] *119:11 6.45427 
2 *119:11 *119:17 3.78492 
3 *119:17 gpio_vtrip_sel[37] 0.6064 
4 *119:17 *119:27 7.005 
5 *119:27 gpio_out[37] 0.6064 
6 *119:27 *119:37 2.175 
7 *119:37 gpio_holdover[37] 0.6064 
8 *119:37 *119:51 2.98588 
9 *119:51 *119:55 0.962967 
10 *119:55 gpio_analog_sel[37] 0.673533 
11 *119:55 *119:67 1.93863 
12 *119:67 gpio_analog_pol[37] 0.7337 
13 *119:67 *119:81 0.468033 
14 *119:81 gpio_dm0[37] 0.673533 
15 *119:81 *119:93 0.445867 
16 *119:93 gpio_analog_en[37] 0.673533 
17 *119:93 *119:105 0.795467 
18 *119:105 gpio_dm1[37] 0.673533 
19 *119:105 gpio_slow_sel[37] 1.87687 
20 *119:51 gpio_dm2[37] 0.190633 
21 *119:11 gpio_ib_mode_sel[37] 0.388233 
*END

*D_NET *120 0.0107602
*CONN
*P gpio_ib_mode_sel[38] O
*P gpio_vtrip_sel[38] O
*P gpio_out[38] O
*P gpio_holdover[38] O
*P gpio_dm2[38] O
*P gpio_analog_sel[38] O
*P gpio_analog_pol[38] O
*P gpio_dm0[38] O
*P gpio_analog_en[38] O
*P gpio_dm1[38] O
*P gpio_slow_sel[38] O
*P gpio_loopback_zero[38] I
*CAP
1 gpio_ib_mode_sel[38] 4.85805e-05
2 gpio_vtrip_sel[38] 5.56034e-05
3 gpio_out[38] 1.94405e-05
4 gpio_holdover[38] 5.68744e-06
5 gpio_dm2[38] 5.68744e-06
6 gpio_analog_sel[38] 6.04623e-05
7 gpio_analog_pol[38] 2.26546e-05
8 gpio_dm0[38] 1.7444e-05
9 gpio_analog_en[38] 2.96775e-05
10 gpio_dm1[38] 3.48881e-05
11 gpio_slow_sel[38] 0.000468467
12 gpio_loopback_zero[38] 0.00105087
13 *120:57 0.000795012
14 *120:55 0.000491341
15 *120:53 0.00035746
16 *120:51 0.000734269
17 *120:43 0.000735211
18 *120:37 0.000304332
19 *120:27 0.000318665
20 *120:17 0.000473363
21 *120:11 0.000466194
22 *120:9 0.00120359
23 gpio_analog_pol[38] gpio_inp_dis[38] 0
24 gpio_ib_mode_sel[38] gpio_oeb[38] 0
25 *120:9 gpio_inp_dis[38] 0.000276236
26 *120:9 *259:9 0.000547848
27 *120:11 gpio_inp_dis[38] 0.000276236
28 *120:17 gpio_inp_dis[38] 0.000819334
29 *120:51 gpio_inp_dis[38] 0.00114164
*RES
1 gpio_loopback_zero[38] *120:9 4.82213 
2 *120:9 *120:11 0.445867 
3 *120:11 *120:17 2.31833 
4 *120:17 *120:27 3.615 
5 *120:27 *120:37 3.96 
6 *120:37 *120:43 2.895 
7 *120:43 *120:51 2.6812 
8 *120:51 *120:53 0.445867 
9 *120:53 *120:55 0.445867 
10 *120:55 *120:57 0.795467 
11 *120:57 gpio_slow_sel[38] 2.26583 
12 *120:57 gpio_dm1[38] 1.0625 
13 *120:55 gpio_analog_en[38] 1.0625 
14 *120:53 gpio_dm0[38] 1.0625 
15 *120:51 gpio_analog_pol[38] 1.0625 
16 *120:43 gpio_analog_sel[38] 1.6275 
17 *120:37 gpio_dm2[38] 0.5625 
18 *120:27 gpio_holdover[38] 0.5625 
19 *120:17 gpio_out[38] 0.5625 
20 *120:11 gpio_vtrip_sel[38] 1.5725 
21 *120:9 gpio_ib_mode_sel[38] 1.5725 
*END

*D_NET *121 0.0118569
*CONN
*P gpio_ib_mode_sel[39] O
*P gpio_vtrip_sel[39] O
*P gpio_out[39] O
*P gpio_holdover[39] O
*P gpio_dm2[39] O
*P gpio_analog_sel[39] O
*P gpio_analog_pol[39] O
*P gpio_dm0[39] O
*P gpio_analog_en[39] O
*P gpio_dm1[39] O
*P gpio_slow_sel[39] O
*P gpio_loopback_zero[39] I
*CAP
1 gpio_ib_mode_sel[39] 4.85805e-05
2 gpio_vtrip_sel[39] 5.56034e-05
3 gpio_out[39] 4.85805e-05
4 gpio_holdover[39] 3.4728e-05
5 gpio_dm2[39] 3.4728e-05
6 gpio_analog_sel[39] 5.56034e-05
7 gpio_analog_pol[39] 3.67004e-05
8 gpio_dm0[39] 3.14898e-05
9 gpio_analog_en[39] 5.77689e-05
10 gpio_dm1[39] 3.48881e-05
11 gpio_slow_sel[39] 0.000477475
12 gpio_loopback_zero[39] 0.00126669
13 *121:31 0.000857649
14 *121:25 0.00058207
15 *121:23 0.00038952
16 *121:21 0.00070626
17 *121:19 0.000658607
18 *121:17 0.000259647
19 *121:15 0.000247319
20 *121:13 0.000421435
21 *121:11 0.000440786
22 *121:9 0.00142773
23 gpio_analog_pol[39] gpio_inp_dis[39] 0
24 gpio_ib_mode_sel[39] gpio_oeb[39] 0
25 *121:9 gpio_inp_dis[39] 0.000198474
26 *121:9 *260:9 0.000545308
27 *121:11 gpio_inp_dis[39] 0.000272873
28 *121:13 gpio_inp_dis[39] 0.000792115
29 *121:15 gpio_inp_dis[39] 0.000232932
30 *121:17 gpio_inp_dis[39] 0.000272873
31 *121:19 gpio_inp_dis[39] 0.000272873
32 *121:21 gpio_inp_dis[39] 0.00109556
*RES
1 gpio_loopback_zero[39] *121:9 5.43203 
2 *121:9 *121:11 0.445867 
3 *121:11 *121:13 1.20333 
4 *121:13 *121:15 0.3876 
5 *121:15 *121:17 0.445867 
6 *121:17 *121:19 0.445867 
7 *121:19 *121:21 1.9608 
8 *121:21 *121:23 0.445867 
9 *121:23 *121:25 0.445867 
10 *121:25 *121:31 0.9576 
11 *121:31 gpio_slow_sel[39] 2.26583 
12 *121:31 gpio_dm1[39] 1.0625 
13 *121:25 gpio_analog_en[39] 1.5725 
14 *121:23 gpio_dm0[39] 1.5725 
15 *121:21 gpio_analog_pol[39] 1.5725 
16 *121:19 gpio_analog_sel[39] 1.5725 
17 *121:17 gpio_dm2[39] 1.5725 
18 *121:15 gpio_holdover[39] 1.5725 
19 *121:13 gpio_out[39] 1.5725 
20 *121:11 gpio_vtrip_sel[39] 1.5725 
21 *121:9 gpio_ib_mode_sel[39] 1.5725 
*END

*D_NET *122 0.0119596
*CONN
*P gpio_oeb[3] O
*P gpio_ib_mode_sel[3] O
*P gpio_vtrip_sel[3] O
*P gpio_holdover[3] O
*P gpio_analog_sel[3] O
*P gpio_analog_pol[3] O
*P gpio_dm0[3] O
*P gpio_analog_en[3] O
*P gpio_slow_sel[3] O
*P gpio_loopback_zero[3] I
*CAP
1 gpio_oeb[3] 5.28172e-05
2 gpio_ib_mode_sel[3] 2.96415e-05
3 gpio_vtrip_sel[3] 6.40502e-05
4 gpio_holdover[3] 5.96668e-05
5 gpio_analog_sel[3] 2.71795e-05
6 gpio_analog_pol[3] 7.80854e-05
7 gpio_dm0[3] 5.32397e-05
8 gpio_analog_en[3] 0.00011449
9 gpio_slow_sel[3] 0.000710078
10 gpio_loopback_zero[3] 0.000854102
11 *122:43 0.000942205
12 *122:41 0.000275897
13 *122:39 0.000772291
14 *122:31 0.000852193
15 *122:23 0.000598029
16 *122:21 0.000443347
17 *122:19 0.000183482
18 *122:17 0.000983996
19 gpio_analog_en[3] gpio_dm1[3] 0
20 gpio_analog_pol[3] gpio_inp_dis[3] 5.07822e-05
21 gpio_analog_sel[3] gpio_dm2[3] 1.78987e-05
22 gpio_holdover[3] gpio_dm2[3] 1.78987e-05
23 gpio_holdover[3] gpio_out[3] 2.02539e-05
24 gpio_slow_sel[3] gpio_dm1[3] 0.00044546
25 *122:17 *139:9 0.000937594
26 *122:19 *139:9 0.000245396
27 *122:21 *139:9 0.000245396
28 *122:23 *139:9 0.000827599
29 *122:31 *139:9 0.000263745
30 *122:31 *139:11 0.000260624
31 *122:39 gpio_dm1[3] 0.000215351
32 *122:39 gpio_dm2[3] 0
33 *122:39 *139:11 0.000831282
34 *122:41 gpio_dm1[3] 0.000246117
35 *122:43 gpio_dm1[3] 0.00023936
*RES
1 gpio_loopback_zero[3] *122:17 5.56655 
2 *122:17 *122:19 0.468667 
3 *122:19 *122:21 0.468667 
4 *122:21 *122:23 1.50227 
5 *122:23 *122:31 1.5241 
6 *122:31 *122:39 2.799 
7 *122:39 *122:41 0.445867 
8 *122:41 *122:43 0.445867 
9 *122:43 gpio_slow_sel[3] 2.8294 
10 *122:43 gpio_analog_en[3] 0.8686 
11 *122:41 gpio_dm0[3] 0.8686 
12 *122:39 gpio_analog_pol[3] 0.8686 
13 *122:31 gpio_analog_sel[3] 0.1064 
14 *122:23 gpio_holdover[3] 0.7375 
15 *122:21 gpio_vtrip_sel[3] 0.736233 
16 *122:19 gpio_ib_mode_sel[3] 0.713433 
17 *122:17 gpio_oeb[3] 0.732433 
*END

*D_NET *123 0.00997032
*CONN
*P gpio_ib_mode_sel[40] O
*P gpio_vtrip_sel[40] O
*P gpio_out[40] O
*P gpio_holdover[40] O
*P gpio_dm2[40] O
*P gpio_analog_sel[40] O
*P gpio_analog_pol[40] O
*P gpio_dm0[40] O
*P gpio_analog_en[40] O
*P gpio_dm1[40] O
*P gpio_slow_sel[40] O
*P gpio_loopback_zero[40] I
*CAP
1 gpio_ib_mode_sel[40] 2.26546e-05
2 gpio_vtrip_sel[40] 2.96775e-05
3 gpio_out[40] 2.26546e-05
4 gpio_holdover[40] 1.7444e-05
5 gpio_dm2[40] 1.7444e-05
6 gpio_analog_sel[40] 2.96775e-05
7 gpio_analog_pol[40] 2.26546e-05
8 gpio_dm0[40] 1.7444e-05
9 gpio_analog_en[40] 2.96775e-05
10 gpio_dm1[40] 3.48881e-05
11 gpio_slow_sel[40] 0.000468467
12 gpio_loopback_zero[40] 0.0013
13 *123:27 0.000795012
14 *123:25 0.000491341
15 *123:23 0.00035746
16 *123:21 0.000736412
17 *123:19 0.00068054
18 *123:17 0.00023167
19 *123:15 0.000218374
20 *123:13 0.00039643
21 *123:11 0.000416748
22 *123:9 0.00142977
23 gpio_analog_pol[40] gpio_inp_dis[40] 0
24 gpio_ib_mode_sel[40] gpio_oeb[40] 0
25 *123:9 gpio_inp_dis[40] 0.000137812
26 *123:9 *261:13 0.000337977
27 *123:11 gpio_inp_dis[40] 0.000164547
28 *123:13 gpio_inp_dis[40] 0.000470134
29 *123:15 gpio_inp_dis[40] 0.00014104
30 *123:17 gpio_inp_dis[40] 0.000164547
31 *123:19 gpio_inp_dis[40] 0.000164547
32 *123:21 gpio_inp_dis[40] 0.000623285
*RES
1 gpio_loopback_zero[40] *123:9 4.93407 
2 *123:9 *123:11 0.445867 
3 *123:11 *123:13 1.20333 
4 *123:13 *123:15 0.3876 
5 *123:15 *123:17 0.445867 
6 *123:17 *123:19 0.445867 
7 *123:19 *123:21 1.9608 
8 *123:21 *123:23 0.445867 
9 *123:23 *123:25 0.445867 
10 *123:25 *123:27 0.795467 
11 *123:27 gpio_slow_sel[40] 2.26583 
12 *123:27 gpio_dm1[40] 1.0625 
13 *123:25 gpio_analog_en[40] 1.0625 
14 *123:23 gpio_dm0[40] 1.0625 
15 *123:21 gpio_analog_pol[40] 1.0625 
16 *123:19 gpio_analog_sel[40] 1.0625 
17 *123:17 gpio_dm2[40] 1.0625 
18 *123:15 gpio_holdover[40] 1.0625 
19 *123:13 gpio_out[40] 1.0625 
20 *123:11 gpio_vtrip_sel[40] 1.0625 
21 *123:9 gpio_ib_mode_sel[40] 1.0625 
*END

*D_NET *124 0.0100416
*CONN
*P gpio_ib_mode_sel[41] O
*P gpio_vtrip_sel[41] O
*P gpio_out[41] O
*P gpio_holdover[41] O
*P gpio_dm2[41] O
*P gpio_analog_sel[41] O
*P gpio_analog_pol[41] O
*P gpio_dm0[41] O
*P gpio_analog_en[41] O
*P gpio_dm1[41] O
*P gpio_slow_sel[41] O
*P gpio_loopback_zero[41] I
*CAP
1 gpio_ib_mode_sel[41] 2.26546e-05
2 gpio_vtrip_sel[41] 2.96775e-05
3 gpio_out[41] 2.26546e-05
4 gpio_holdover[41] 1.7444e-05
5 gpio_dm2[41] 1.7444e-05
6 gpio_analog_sel[41] 2.96775e-05
7 gpio_analog_pol[41] 2.26546e-05
8 gpio_dm0[41] 1.7444e-05
9 gpio_analog_en[41] 2.96775e-05
10 gpio_dm1[41] 3.48881e-05
11 gpio_slow_sel[41] 0.000468467
12 gpio_loopback_zero[41] 0.00137087
13 *124:27 0.000795012
14 *124:25 0.000491341
15 *124:23 0.00035746
16 *124:21 0.000736412
17 *124:19 0.00068054
18 *124:17 0.00023167
19 *124:15 0.000218374
20 *124:13 0.00039643
21 *124:11 0.000416748
22 *124:9 0.00150064
23 gpio_analog_pol[41] gpio_inp_dis[41] 0
24 gpio_ib_mode_sel[41] gpio_oeb[41] 0
25 *124:9 gpio_inp_dis[41] 0.000184826
26 *124:9 *262:17 0.000220443
27 *124:11 gpio_inp_dis[41] 0.000164547
28 *124:13 gpio_inp_dis[41] 0.000470134
29 *124:15 gpio_inp_dis[41] 0.00014104
30 *124:17 gpio_inp_dis[41] 0.000164547
31 *124:19 gpio_inp_dis[41] 0.000164547
32 *124:21 gpio_inp_dis[41] 0.000623285
*RES
1 gpio_loopback_zero[41] *124:9 4.92203 
2 *124:9 *124:11 0.445867 
3 *124:11 *124:13 1.20333 
4 *124:13 *124:15 0.3876 
5 *124:15 *124:17 0.445867 
6 *124:17 *124:19 0.445867 
7 *124:19 *124:21 1.9608 
8 *124:21 *124:23 0.445867 
9 *124:23 *124:25 0.445867 
10 *124:25 *124:27 0.795467 
11 *124:27 gpio_slow_sel[41] 2.26583 
12 *124:27 gpio_dm1[41] 1.0625 
13 *124:25 gpio_analog_en[41] 1.0625 
14 *124:23 gpio_dm0[41] 1.0625 
15 *124:21 gpio_analog_pol[41] 1.0625 
16 *124:19 gpio_analog_sel[41] 1.0625 
17 *124:17 gpio_dm2[41] 1.0625 
18 *124:15 gpio_holdover[41] 1.0625 
19 *124:13 gpio_out[41] 1.0625 
20 *124:11 gpio_vtrip_sel[41] 1.0625 
21 *124:9 gpio_ib_mode_sel[41] 1.0625 
*END

*D_NET *125 0.0113788
*CONN
*P gpio_ib_mode_sel[42] O
*P gpio_vtrip_sel[42] O
*P gpio_out[42] O
*P gpio_holdover[42] O
*P gpio_dm2[42] O
*P gpio_analog_sel[42] O
*P gpio_analog_pol[42] O
*P gpio_dm0[42] O
*P gpio_analog_en[42] O
*P gpio_dm1[42] O
*P gpio_slow_sel[42] O
*P gpio_loopback_zero[42] I
*CAP
1 gpio_ib_mode_sel[42] 4.85805e-05
2 gpio_vtrip_sel[42] 5.56034e-05
3 gpio_out[42] 4.85805e-05
4 gpio_holdover[42] 3.4728e-05
5 gpio_dm2[42] 2.6086e-05
6 gpio_analog_sel[42] 5.77689e-05
7 gpio_analog_pol[42] 5.72225e-05
8 gpio_dm0[42] 1.7444e-05
9 gpio_analog_en[42] 0.000115835
10 gpio_dm1[42] 3.48881e-05
11 gpio_slow_sel[42] 0.000477475
12 gpio_loopback_zero[42] 0.00127715
13 *125:29 0.000813026
14 *125:27 0.000595513
15 *125:25 0.000385772
16 *125:21 0.000764945
17 *125:19 0.000691593
18 *125:17 0.00025396
19 *125:15 0.000247319
20 *125:13 0.000421435
21 *125:11 0.000440786
22 *125:9 0.00143819
23 gpio_analog_pol[42] gpio_inp_dis[42] 0
24 gpio_ib_mode_sel[42] gpio_oeb[42] 0
25 *125:9 gpio_inp_dis[42] 0.000272873
26 *125:9 *263:9 0.000540355
27 *125:11 gpio_inp_dis[42] 0.000272873
28 *125:13 gpio_inp_dis[42] 0.000792115
29 *125:15 gpio_inp_dis[42] 0.000232932
30 *125:17 gpio_inp_dis[42] 0.000272873
31 *125:19 gpio_inp_dis[42] 0.00019983
32 *125:21 gpio_inp_dis[42] 0.000482496
33 *125:25 gpio_inp_dis[42] 8.54539e-06
*RES
1 gpio_loopback_zero[42] *125:9 5.4409 
2 *125:9 *125:11 0.445867 
3 *125:11 *125:13 1.20333 
4 *125:13 *125:15 0.3876 
5 *125:15 *125:17 0.445867 
6 *125:17 *125:19 0.445867 
7 *125:19 *125:21 1.9608 
8 *125:21 *125:25 0.57 
9 *125:25 *125:27 0.445867 
10 *125:27 *125:29 0.795467 
11 *125:29 gpio_slow_sel[42] 2.26583 
12 *125:29 gpio_dm1[42] 1.0625 
13 *125:27 gpio_analog_en[42] 1.69663 
14 *125:25 gpio_dm0[42] 1.0625 
15 *125:21 gpio_analog_pol[42] 1.5725 
16 *125:19 gpio_analog_sel[42] 1.5725 
17 *125:17 gpio_dm2[42] 1.5725 
18 *125:15 gpio_holdover[42] 1.5725 
19 *125:13 gpio_out[42] 1.5725 
20 *125:11 gpio_vtrip_sel[42] 1.5725 
21 *125:9 gpio_ib_mode_sel[42] 1.5725 
*END

*D_NET *126 0.0104825
*CONN
*P gpio_ib_mode_sel[43] O
*P gpio_out[43] O
*P gpio_holdover[43] O
*P gpio_dm2[43] O
*P gpio_analog_sel[43] O
*P gpio_analog_pol[43] O
*P gpio_dm0[43] O
*P gpio_analog_en[43] O
*P gpio_dm1[43] O
*P gpio_slow_sel[43] O
*P gpio_vtrip_sel[43] O
*P gpio_loopback_zero[43] I
*CAP
1 gpio_ib_mode_sel[43] 3.73808e-06
2 gpio_out[43] 2.26546e-05
3 gpio_holdover[43] 1.7444e-05
4 gpio_dm2[43] 1.7444e-05
5 gpio_analog_sel[43] 2.96775e-05
6 gpio_analog_pol[43] 2.26546e-05
7 gpio_dm0[43] 1.7444e-05
8 gpio_analog_en[43] 2.96775e-05
9 gpio_dm1[43] 3.48881e-05
10 gpio_slow_sel[43] 0.000468467
11 gpio_vtrip_sel[43] 2.11351e-05
12 gpio_loopback_zero[43] 0.00146805
13 *126:53 0.000795012
14 *126:51 0.000491341
15 *126:49 0.00035746
16 *126:47 0.000736412
17 *126:45 0.00068054
18 *126:43 0.00023167
19 *126:41 0.000218374
20 *126:39 0.000403035
21 *126:29 0.000472741
22 *126:19 0.00163683
23 gpio_analog_pol[43] gpio_inp_dis[43] 0
24 *126:19 gpio_inp_dis[43] 0.00030287
25 *126:19 gpio_oeb[43] 0
26 *126:19 *264:13 0.000439359
27 *126:39 gpio_inp_dis[43] 0.000470134
28 *126:41 gpio_inp_dis[43] 0.00014104
29 *126:43 gpio_inp_dis[43] 0.000164547
30 *126:45 gpio_inp_dis[43] 0.000164547
31 *126:47 gpio_inp_dis[43] 0.000623285
*RES
1 gpio_loopback_zero[43] *126:19 7.837 
2 *126:19 *126:29 3.96 
3 *126:29 gpio_vtrip_sel[43] 0.5625 
4 *126:29 *126:39 1.70333 
5 *126:39 *126:41 0.3876 
6 *126:41 *126:43 0.445867 
7 *126:43 *126:45 0.445867 
8 *126:45 *126:47 1.9608 
9 *126:47 *126:49 0.445867 
10 *126:49 *126:51 0.445867 
11 *126:51 *126:53 0.795467 
12 *126:53 gpio_slow_sel[43] 2.26583 
13 *126:53 gpio_dm1[43] 1.0625 
14 *126:51 gpio_analog_en[43] 1.0625 
15 *126:49 gpio_dm0[43] 1.0625 
16 *126:47 gpio_analog_pol[43] 1.0625 
17 *126:45 gpio_analog_sel[43] 1.0625 
18 *126:43 gpio_dm2[43] 1.0625 
19 *126:41 gpio_holdover[43] 1.0625 
20 *126:39 gpio_out[43] 1.0625 
21 *126:19 gpio_ib_mode_sel[43] 0.5625 
*END

*D_NET *127 0.0110564
*CONN
*P gpio_oeb[4] O
*P gpio_ib_mode_sel[4] O
*P gpio_vtrip_sel[4] O
*P gpio_holdover[4] O
*P gpio_analog_sel[4] O
*P gpio_analog_pol[4] O
*P gpio_dm0[4] O
*P gpio_analog_en[4] O
*P gpio_slow_sel[4] O
*P gpio_loopback_zero[4] I
*CAP
1 gpio_oeb[4] 2.66735e-05
2 gpio_ib_mode_sel[4] 1.78639e-05
3 gpio_vtrip_sel[4] 3.22182e-05
4 gpio_holdover[4] 6.56307e-05
5 gpio_analog_sel[4] 6.70515e-05
6 gpio_analog_pol[4] 4.673e-05
7 gpio_dm0[4] 3.53572e-05
8 gpio_analog_en[4] 6.55663e-05
9 gpio_slow_sel[4] 0.000653662
10 gpio_loopback_zero[4] 0.00102621
11 *127:29 0.00084322
12 *127:27 0.00028191
13 *127:25 0.000597357
14 *127:23 0.000728809
15 *127:21 0.00066947
16 *127:15 0.000547257
17 *127:11 0.000314122
18 *127:9 0.00120425
19 gpio_analog_en[4] gpio_dm1[4] 0
20 gpio_analog_pol[4] gpio_inp_dis[4] 2.5346e-05
21 gpio_analog_sel[4] gpio_dm2[4] 2.14672e-05
22 gpio_holdover[4] gpio_dm2[4] 2.02465e-05
23 gpio_holdover[4] gpio_out[4] 2.62587e-05
24 gpio_slow_sel[4] gpio_dm1[4] 0.000429655
25 *127:9 *140:9 0.000395777
26 *127:21 *140:9 0.000829142
27 *127:23 *140:9 0.000268725
28 *127:23 *140:11 0.000233992
29 *127:25 gpio_dm1[4] 0.000184913
30 *127:25 *140:11 0.000906754
31 *127:27 gpio_dm1[4] 0.000245396
32 *127:29 gpio_dm1[4] 0.000245396
*RES
1 gpio_loopback_zero[4] *127:9 18.1489 
2 *127:9 *127:11 2.52 
3 *127:11 *127:15 3.02 
4 *127:15 *127:21 2.08397 
5 *127:21 *127:23 0.899333 
6 *127:23 *127:25 1.93293 
7 *127:25 *127:27 0.468667 
8 *127:27 *127:29 0.468667 
9 *127:29 gpio_slow_sel[4] 2.6451 
10 *127:29 gpio_analog_en[4] 0.738767 
11 *127:27 gpio_dm0[4] 0.715967 
12 *127:25 gpio_analog_pol[4] 0.7299 
13 *127:23 gpio_analog_sel[4] 0.721033 
14 *127:21 gpio_holdover[4] 0.747633 
15 *127:15 gpio_vtrip_sel[4] 0.1064 
16 *127:11 gpio_ib_mode_sel[4] 0.6064 
17 *127:9 gpio_oeb[4] 0.6064 
*END

*D_NET *128 0.0102889
*CONN
*P gpio_oeb[5] O
*P gpio_ib_mode_sel[5] O
*P gpio_vtrip_sel[5] O
*P gpio_holdover[5] O
*P gpio_analog_sel[5] O
*P gpio_dm0[5] O
*P gpio_slow_sel[5] O
*P gpio_analog_en[5] O
*P gpio_analog_pol[5] O
*P gpio_loopback_zero[5] I
*CAP
1 gpio_oeb[5] 1.94348e-05
2 gpio_ib_mode_sel[5] 1.36548e-05
3 gpio_vtrip_sel[5] 3.14258e-05
4 gpio_holdover[5] 3.49314e-05
5 gpio_analog_sel[5] 4.16555e-05
6 gpio_dm0[5] 9.3021e-05
7 gpio_slow_sel[5] 0.00070087
8 gpio_analog_en[5] 5.04157e-05
9 gpio_analog_pol[5] 0.000166443
10 gpio_loopback_zero[5] 0.000965985
11 *128:63 0.000839404
12 *128:61 0.000358865
13 *128:43 0.000869395
14 *128:33 0.000856023
15 *128:31 0.000848487
16 *128:29 0.000700732
17 *128:27 0.000309912
18 *128:25 0.00113679
19 gpio_analog_en[5] gpio_dm1[5] 2.88116e-05
20 gpio_analog_pol[5] gpio_inp_dis[5] 2.01084e-05
21 gpio_analog_sel[5] gpio_dm2[5] 1.4168e-05
22 gpio_holdover[5] gpio_out[5] 2.10284e-05
23 gpio_holdover[5] *141:13 1.33888e-06
24 gpio_holdover[5] *141:27 1.51498e-05
25 gpio_slow_sel[5] gpio_dm1[5] 0.000307061
26 *128:25 *141:13 0.00055739
27 *128:43 gpio_dm1[5] 0.000222245
28 *128:43 *141:27 0.000729441
29 *128:61 gpio_dm1[5] 0.000334718
*RES
1 gpio_loopback_zero[5] *128:25 11.9488 
2 *128:25 *128:27 2.52 
3 *128:27 *128:29 2.52 
4 *128:29 *128:31 9.075 
5 *128:31 *128:33 4.935 
6 *128:33 *128:43 4.40142 
7 *128:43 gpio_analog_pol[5] 0.9066 
8 *128:43 *128:61 1.67957 
9 *128:61 *128:63 1.53375 
10 *128:63 gpio_analog_en[5] 0.6064 
11 *128:63 gpio_slow_sel[5] 12.9964 
12 *128:61 gpio_dm0[5] 1.69765 
13 *128:33 gpio_analog_sel[5] 0.6064 
14 *128:31 gpio_holdover[5] 0.6064 
15 *128:29 gpio_vtrip_sel[5] 0.6064 
16 *128:27 gpio_ib_mode_sel[5] 0.6064 
17 *128:25 gpio_oeb[5] 0.6064 
*END

*D_NET *129 0.0101078
*CONN
*P gpio_ib_mode_sel[6] O
*P gpio_vtrip_sel[6] O
*P gpio_holdover[6] O
*P gpio_analog_sel[6] O
*P gpio_analog_pol[6] O
*P gpio_dm0[6] O
*P gpio_analog_en[6] O
*P gpio_slow_sel[6] O
*P gpio_oeb[6] O
*P gpio_loopback_zero[6] I
*CAP
1 gpio_ib_mode_sel[6] 1.36548e-05
2 gpio_vtrip_sel[6] 6.72e-05
3 gpio_holdover[6] 2.66534e-05
4 gpio_analog_sel[6] 2.86745e-05
5 gpio_analog_pol[6] 1.26311e-05
6 gpio_dm0[6] 1.36548e-05
7 gpio_analog_en[6] 3.14258e-05
8 gpio_slow_sel[6] 0.000686269
9 gpio_oeb[6] 7.07861e-05
10 gpio_loopback_zero[6] 0.00106186
11 *129:57 0.000869062
12 *129:55 0.000316389
13 *129:53 0.000694535
14 *129:35 0.000848352
15 *129:33 0.000819753
16 *129:31 0.000736506
17 *129:29 0.000323892
18 *129:17 0.00127754
19 gpio_analog_en[6] gpio_dm1[6] 0
20 gpio_analog_pol[6] gpio_inp_dis[6] 1.47775e-05
21 gpio_analog_sel[6] gpio_dm2[6] 1.86516e-05
22 gpio_holdover[6] gpio_dm2[6] 1.86516e-05
23 gpio_holdover[6] gpio_out[6] 2.10284e-05
24 *129:17 *142:9 0.000845366
25 *129:33 *142:9 0.000263841
26 *129:53 gpio_dm1[6] 0.000167444
27 *129:53 gpio_inp_dis[6] 1.15013e-05
28 *129:53 *142:11 0.000847717
*RES
1 gpio_loopback_zero[6] *129:17 5.60698 
2 *129:17 gpio_oeb[6] 1.11467 
3 *129:17 *129:29 2.52 
4 *129:29 *129:31 2.72625 
5 *129:31 *129:33 8.86875 
6 *129:33 *129:35 4.935 
7 *129:35 *129:53 5.28993 
8 *129:53 *129:55 2.52 
9 *129:55 *129:57 2.52 
10 *129:57 gpio_slow_sel[6] 12.0964 
11 *129:57 gpio_analog_en[6] 0.6064 
12 *129:55 gpio_dm0[6] 0.6064 
13 *129:53 gpio_analog_pol[6] 0.6064 
14 *129:35 gpio_analog_sel[6] 0.6064 
15 *129:33 gpio_holdover[6] 0.6064 
16 *129:31 gpio_vtrip_sel[6] 0.7755 
17 *129:29 gpio_ib_mode_sel[6] 0.6064 
*END

*D_NET *130 0.0107721
*CONN
*P gpio_oeb[7] O
*P gpio_ib_mode_sel[7] O
*P gpio_vtrip_sel[7] O
*P gpio_holdover[7] O
*P gpio_analog_sel[7] O
*P gpio_analog_pol[7] O
*P gpio_dm0[7] O
*P gpio_analog_en[7] O
*P gpio_slow_sel[7] O
*P gpio_loopback_zero[7] I
*CAP
1 gpio_oeb[7] 2.38633e-05
2 gpio_ib_mode_sel[7] 1.86511e-05
3 gpio_vtrip_sel[7] 3.76935e-05
4 gpio_holdover[7] 3.6644e-05
5 gpio_analog_sel[7] 4.46429e-05
6 gpio_analog_pol[7] 2.49422e-05
7 gpio_dm0[7] 1.86511e-05
8 gpio_analog_en[7] 2.03731e-05
9 gpio_slow_sel[7] 0.000717452
10 gpio_loopback_zero[7] 0.000937311
11 *130:35 0.000889192
12 *130:33 0.000314909
13 *130:31 0.000819078
14 *130:29 0.000983029
15 *130:27 0.000843723
16 *130:25 0.000706999
17 *130:23 0.000314909
18 *130:21 0.00110606
19 gpio_analog_pol[7] gpio_inp_dis[7] 1.81358e-05
20 gpio_analog_sel[7] gpio_dm2[7] 1.59362e-05
21 gpio_holdover[7] gpio_dm2[7] 1.59362e-05
22 gpio_holdover[7] gpio_out[7] 1.81358e-05
23 gpio_slow_sel[7] gpio_out[8] 0.000935794
24 *130:21 gpio_out[8] 0.000526898
25 *130:21 *143:9 0.000770304
26 *130:27 gpio_out[8] 0.000253564
27 *130:31 gpio_out[8] 0.000359229
*RES
1 gpio_loopback_zero[7] *130:21 5.58125 
2 *130:21 *130:23 2.52 
3 *130:23 *130:25 2.52 
4 *130:25 *130:27 9.075 
5 *130:27 *130:29 4.935 
6 *130:29 *130:31 11.49 
7 *130:31 *130:33 2.52 
8 *130:33 *130:35 2.52 
9 *130:35 gpio_slow_sel[7] 4.88502 
10 *130:35 gpio_analog_en[7] 0.6064 
11 *130:33 gpio_dm0[7] 0.6064 
12 *130:31 gpio_analog_pol[7] 0.6064 
13 *130:29 gpio_analog_sel[7] 0.6064 
14 *130:27 gpio_holdover[7] 0.6064 
15 *130:25 gpio_vtrip_sel[7] 0.6064 
16 *130:23 gpio_ib_mode_sel[7] 0.6064 
17 *130:21 gpio_oeb[7] 0.6064 
*END

*D_NET *131 0.0112407
*CONN
*P gpio_oeb[8] O
*P gpio_ib_mode_sel[8] O
*P gpio_vtrip_sel[8] O
*P gpio_holdover[8] O
*P gpio_dm0[8] O
*P gpio_analog_en[8] O
*P gpio_slow_sel[8] O
*P gpio_analog_pol[8] O
*P gpio_analog_sel[8] O
*P gpio_loopback_zero[8] I
*CAP
1 gpio_oeb[8] 2.66735e-05
2 gpio_ib_mode_sel[8] 1.36548e-05
3 gpio_vtrip_sel[8] 3.14258e-05
4 gpio_holdover[8] 3.57975e-05
5 gpio_dm0[8] 2.86155e-05
6 gpio_analog_en[8] 8.59397e-05
7 gpio_slow_sel[8] 0.000446379
8 gpio_analog_pol[8] 6.00744e-05
9 gpio_analog_sel[8] 5.16647e-05
10 gpio_loopback_zero[8] 0.000925907
11 *131:63 0.000633563
12 *131:57 0.000266377
13 *131:43 0.00070454
14 *131:27 0.000842777
15 *131:23 0.000843375
16 *131:21 0.000707208
17 *131:19 0.000316389
18 *131:17 0.00110395
19 gpio_analog_en[8] gpio_dm1[8] 0
20 gpio_analog_pol[8] gpio_inp_dis[8] 2.01084e-05
21 gpio_holdover[8] gpio_dm2[8] 1.59362e-05
22 gpio_holdover[8] gpio_out[8] 2.06877e-05
23 gpio_slow_sel[8] gpio_dm1[8] 0.00044875
24 gpio_slow_sel[8] gpio_out[8] 0.00109861
25 *131:17 gpio_out[9] 0.00059365
26 *131:23 gpio_out[9] 0.000263841
27 *131:43 gpio_dm2[8] 1.2625e-05
28 *131:43 gpio_out[8] 0.00112535
29 *131:63 gpio_dm1[8] 0.000252975
30 *131:63 gpio_out[8] 0.000263855
*RES
1 gpio_loopback_zero[8] *131:17 15.7071 
2 *131:17 *131:19 2.52 
3 *131:19 *131:21 2.52 
4 *131:21 *131:23 9.075 
5 *131:23 *131:27 5.25125 
6 *131:27 gpio_analog_sel[8] 0.175433 
7 *131:27 *131:43 3.14447 
8 *131:43 gpio_analog_pol[8] 0.3553 
9 *131:43 *131:57 0.537067 
10 *131:57 *131:63 1.1365 
11 *131:63 gpio_slow_sel[8] 2.71287 
12 *131:63 gpio_analog_en[8] 0.752067 
13 *131:57 gpio_dm0[8] 0.209633 
14 *131:23 gpio_holdover[8] 0.6064 
15 *131:21 gpio_vtrip_sel[8] 0.6064 
16 *131:19 gpio_ib_mode_sel[8] 0.6064 
17 *131:17 gpio_oeb[8] 0.6064 
*END

*D_NET *132 0.0121087
*CONN
*P gpio_oeb[9] O
*P gpio_ib_mode_sel[9] O
*P gpio_vtrip_sel[9] O
*P gpio_holdover[9] O
*P gpio_analog_sel[9] O
*P gpio_analog_pol[9] O
*P gpio_dm0[9] O
*P gpio_analog_en[9] O
*P gpio_slow_sel[9] O
*P gpio_loopback_zero[9] I
*CAP
1 gpio_oeb[9] 7.9979e-05
2 gpio_ib_mode_sel[9] 4.37557e-05
3 gpio_vtrip_sel[9] 8.47313e-05
4 gpio_holdover[9] 9.84808e-05
5 gpio_analog_sel[9] 6.30645e-05
6 gpio_analog_pol[9] 6.99836e-05
7 gpio_dm0[9] 6.08961e-05
8 gpio_analog_en[9] 8.81219e-05
9 gpio_slow_sel[9] 0.000546952
10 gpio_loopback_zero[9] 0.000753219
11 *132:31 0.000733451
12 *132:27 0.000247135
13 *132:23 0.000609083
14 *132:19 0.000710691
15 *132:15 0.000590837
16 *132:13 0.000498335
17 *132:11 0.00027903
18 *132:9 0.000950835
19 gpio_analog_en[9] gpio_dm1[9] 0
20 gpio_analog_pol[9] gpio_inp_dis[9] 1.81358e-05
21 gpio_analog_sel[9] gpio_dm2[9] 1.59362e-05
22 gpio_analog_sel[9] *145:21 1.30296e-05
23 gpio_holdover[9] gpio_dm2[9] 1.59362e-05
24 gpio_holdover[9] gpio_out[9] 4.18658e-05
25 gpio_slow_sel[9] gpio_out[9] 0.000569115
26 *132:9 gpio_out[10] 0.000972847
27 *132:9 *145:21 0.000345137
28 *132:11 *145:21 0.00023936
29 *132:13 *145:21 0.00023936
30 *132:15 gpio_out[9] 0.000193987
31 *132:15 *145:21 0.000864419
32 *132:19 gpio_out[9] 0.000486462
33 *132:19 *145:21 0.000256913
34 *132:23 gpio_out[9] 0.000675663
35 *132:23 *145:25 0.000359229
36 *132:27 gpio_out[9] 0.000146369
37 *132:31 gpio_out[9] 0.000146369
*RES
1 gpio_loopback_zero[9] *132:9 3.35507 
2 *132:9 *132:11 0.445867 
3 *132:11 *132:13 0.445867 
4 *132:13 *132:15 1.55293 
5 *132:15 *132:19 1.00827 
6 *132:19 *132:23 2.10203 
7 *132:23 *132:27 0.506667 
8 *132:27 *132:31 0.506667 
9 *132:31 gpio_slow_sel[9] 4.26682 
10 *132:31 gpio_analog_en[9] 0.860367 
11 *132:27 gpio_dm0[9] 0.837567 
12 *132:23 gpio_analog_pol[9] 0.814767 
13 *132:19 gpio_analog_sel[9] 0.673533 
14 *132:15 gpio_holdover[9] 0.752067 
15 *132:13 gpio_vtrip_sel[9] 0.752067 
16 *132:11 gpio_ib_mode_sel[9] 0.752067 
17 *132:9 gpio_oeb[9] 0.752067 
*END

*D_NET *133 0.00752697
*CONN
*P gpio_dm0[0] O
*P gpio_oeb[0] O
*P gpio_loopback_one[0] I
*CAP
1 gpio_dm0[0] 0.00193241
2 gpio_oeb[0] 0.00016732
3 gpio_loopback_one[0] 0.000740199
4 *133:13 0.00283993
5 gpio_analog_en[0] gpio_dm0[0] 2.15929e-05
6 gpio_analog_pol[0] gpio_dm0[0] 2.15929e-05
7 gpio_ib_mode_sel[0] gpio_oeb[0] 1.98784e-05
8 gpio_ib_mode_sel[0] *133:13 5.18827e-06
9 gpio_inp_dis[0] gpio_dm0[0] 1.39525e-05
10 *89:13 gpio_dm0[0] 0.000183124
11 *89:13 gpio_oeb[0] 2.75204e-05
12 *89:13 *133:13 0.000461746
13 *89:23 gpio_dm0[0] 0.000107996
14 *89:35 gpio_dm0[0] 0.000253564
15 *89:49 gpio_dm0[0] 0.000730966
*RES
1 gpio_loopback_one[0] *133:13 13.3085 
2 *133:13 gpio_oeb[0] 0.5453 
3 *133:13 gpio_dm0[0] 12.957 
*END

*D_NET *134 0.00903828
*CONN
*P gpio_out[1] O
*P gpio_dm2[1] O
*P gpio_dm0[1] O
*P gpio_dm1[1] O
*P gpio_loopback_one[1] I
*CAP
1 gpio_out[1] 0.000105716
2 gpio_dm2[1] 8.03567e-05
3 gpio_dm0[1] 9.79984e-05
4 gpio_dm1[1] 0.000492537
5 gpio_loopback_one[1] 0.00133847
6 *134:13 0.00163415
7 *134:11 0.00139892
8 *134:9 0.00171913
9 gpio_analog_en[1] gpio_dm0[1] 1.59362e-05
10 gpio_analog_en[1] gpio_dm1[1] 0
11 gpio_analog_pol[1] gpio_dm0[1] 1.86516e-05
12 gpio_analog_sel[1] gpio_dm2[1] 1.86516e-05
13 gpio_holdover[1] gpio_dm2[1] 1.3268e-05
14 gpio_holdover[1] gpio_out[1] 1.81358e-05
15 gpio_slow_sel[1] gpio_dm0[1] 3.24887e-06
16 gpio_slow_sel[1] gpio_dm1[1] 0.000434634
17 *100:9 *134:9 0.000417767
18 *100:27 gpio_dm2[1] 1.06751e-05
19 *100:27 gpio_out[1] 7.81773e-06
20 *100:27 *134:9 0.000625971
21 *100:27 *134:11 0.00021246
22 *100:33 *134:13 0.000373788
*RES
1 gpio_loopback_one[1] *134:9 4.5755 
2 *134:9 *134:11 0.795467 
3 *134:11 *134:13 2.77653 
4 *134:13 gpio_dm1[1] 1.9554 
5 *134:13 gpio_dm0[1] 0.752067 
6 *134:11 gpio_dm2[1] 0.752067 
7 *134:9 gpio_out[1] 0.752067 
*END

*D_NET *135 0.00862152
*CONN
*P gpio_dm2[10] O
*P gpio_dm1[10] O
*P gpio_inp_dis[10] O
*P gpio_loopback_one[10] I
*CAP
1 gpio_dm2[10] 5.08497e-05
2 gpio_dm1[10] 0.000702713
3 gpio_inp_dis[10] 4.55176e-05
4 gpio_loopback_one[10] 0.00138291
5 *135:29 0.00140739
6 *135:23 0.00209292
7 gpio_dm1[10] gpio_out[10] 0.000263463
8 *135:23 gpio_out[10] 0.000433724
9 gpio_analog_en[10] gpio_dm1[10] 0
10 gpio_analog_pol[10] gpio_inp_dis[10] 1.57861e-05
11 gpio_analog_sel[10] gpio_dm2[10] 1.14269e-05
12 gpio_slow_sel[10] gpio_dm1[10] 0
13 *90:13 *135:23 0.000483713
14 *90:23 *135:23 0.000107996
15 *90:31 *135:23 0.000253564
16 *90:41 gpio_dm2[10] 1.2567e-05
17 *90:41 *135:23 0.000250532
18 *90:45 gpio_dm1[10] 0.000239983
19 *90:45 *135:23 0
20 *90:45 *135:29 0.000359229
21 *90:47 gpio_dm1[10] 0.000254057
22 *90:51 gpio_dm1[10] 0.000253168
*RES
1 gpio_loopback_one[10] *135:23 8.03045 
2 *135:23 *135:29 12.6362 
3 *135:29 gpio_inp_dis[10] 0.177967 
4 *135:29 gpio_dm1[10] 3.49723 
5 *135:23 gpio_dm2[10] 0.1064 
*END

*D_NET *136 0.00923827
*CONN
*P gpio_dm2[11] O
*P gpio_inp_dis[11] O
*P gpio_dm1[11] O
*P gpio_loopback_one[11] I
*CAP
1 gpio_dm2[11] 0.000132195
2 gpio_inp_dis[11] 0.000163014
3 gpio_dm1[11] 0.000600412
4 gpio_loopback_one[11] 0.000983377
5 *136:11 0.00120265
6 *136:9 0.0015548
7 gpio_analog_en[11] gpio_dm1[11] 0
8 gpio_analog_pol[11] gpio_inp_dis[11] 4.18658e-05
9 gpio_analog_sel[11] gpio_dm2[11] 4.16565e-05
10 gpio_holdover[11] gpio_dm2[11] 4.16565e-05
11 gpio_slow_sel[11] gpio_dm1[11] 0.000449545
12 *91:9 *136:9 0.000663498
13 *91:11 *136:9 0.000232405
14 *91:13 *136:9 0.000232405
15 *91:15 *136:9 0.000863217
16 *91:17 *136:9 0.00024577
17 *91:17 *136:11 0.000224206
18 *91:19 gpio_dm1[11] 0.000191006
19 *91:19 *136:11 0.000909783
20 *91:21 gpio_dm1[11] 0.000232405
21 *91:23 gpio_dm1[11] 0.000232405
*RES
1 gpio_loopback_one[11] *136:9 4.8168 
2 *136:9 *136:11 2.01907 
3 *136:11 gpio_dm1[11] 2.8294 
4 *136:11 gpio_inp_dis[11] 0.8686 
5 *136:9 gpio_dm2[11] 0.8686 
*END

*D_NET *137 0.00864139
*CONN
*P gpio_dm2[12] O
*P gpio_inp_dis[12] O
*P gpio_dm1[12] O
*P gpio_loopback_one[12] I
*CAP
1 gpio_dm2[12] 0.000114781
2 gpio_inp_dis[12] 0.000123949
3 gpio_dm1[12] 0.000549883
4 gpio_loopback_one[12] 0.00113447
5 *137:11 0.00111306
6 *137:9 0.00168848
7 gpio_analog_pol[12] gpio_inp_dis[12] 1.57861e-05
8 gpio_analog_sel[12] gpio_dm2[12] 1.78857e-05
9 gpio_holdover[12] gpio_dm2[12] 1.73241e-05
10 gpio_slow_sel[12] gpio_dm1[12] 0.000505407
11 *92:9 *137:9 0.00028583
12 *92:19 *137:9 0.000217609
13 *92:21 *137:9 0.000883426
14 *92:23 *137:9 0.000239561
15 *92:23 *137:11 0.000207318
16 *92:25 gpio_dm1[12] 0.000207318
17 *92:25 *137:11 0.000926671
18 *92:27 gpio_dm1[12] 0.000196317
19 *92:29 gpio_dm1[12] 0.000196317
*RES
1 gpio_loopback_one[12] *137:9 4.70027 
2 *137:9 *137:11 2.01907 
3 *137:11 gpio_dm1[12] 2.71287 
4 *137:11 gpio_inp_dis[12] 0.752067 
5 *137:9 gpio_dm2[12] 0.752067 
*END

*D_NET *138 0.00921215
*CONN
*P gpio_dm2[2] O
*P gpio_inp_dis[2] O
*P gpio_dm1[2] O
*P gpio_loopback_one[2] I
*CAP
1 gpio_dm2[2] 8.73013e-05
2 gpio_inp_dis[2] 9.78232e-05
3 gpio_dm1[2] 0.000951762
4 gpio_loopback_one[2] 0.00163154
5 *138:15 0.00181788
6 *138:13 0.00248713
7 gpio_dm2[2] gpio_out[2] 0
8 gpio_analog_en[2] gpio_dm1[2] 0
9 gpio_analog_pol[2] gpio_inp_dis[2] 1.01482e-05
10 gpio_analog_sel[2] gpio_dm2[2] 1.4168e-05
11 gpio_holdover[2] gpio_dm2[2] 1.55676e-05
12 *111:19 *138:13 0.00106221
13 *111:37 *138:13 0.000283534
14 *111:45 gpio_inp_dis[2] 9.41659e-06
15 *111:45 *138:15 0.000401687
16 *111:59 gpio_dm1[2] 0.000341974
*RES
1 gpio_loopback_one[2] *138:13 5.3754 
2 *138:13 *138:15 2.01907 
3 *138:15 gpio_dm1[2] 2.87183 
4 *138:15 gpio_inp_dis[2] 0.861633 
5 *138:13 gpio_dm2[2] 0.861633 
*END

*D_NET *139 0.00940721
*CONN
*P gpio_dm2[3] O
*P gpio_inp_dis[3] O
*P gpio_dm1[3] O
*P gpio_loopback_one[3] I
*CAP
1 gpio_dm2[3] 9.86499e-05
2 gpio_inp_dis[3] 7.87831e-05
3 gpio_dm1[3] 0.00057186
4 gpio_loopback_one[3] 0.00107284
5 *139:11 0.00110986
6 *139:9 0.00163071
7 gpio_analog_en[3] gpio_dm1[3] 0
8 gpio_analog_pol[3] gpio_inp_dis[3] 5.07822e-05
9 gpio_analog_sel[3] gpio_dm2[3] 1.78987e-05
10 gpio_holdover[3] gpio_dm2[3] 1.78987e-05
11 gpio_slow_sel[3] gpio_dm1[3] 0.00044546
12 *122:17 *139:9 0.000937594
13 *122:19 *139:9 0.000245396
14 *122:21 *139:9 0.000245396
15 *122:23 *139:9 0.000827599
16 *122:31 *139:9 0.000263745
17 *122:31 *139:11 0.000260624
18 *122:39 gpio_dm1[3] 0.000215351
19 *122:39 gpio_dm2[3] 0
20 *122:39 *139:11 0.000831282
21 *122:41 gpio_dm1[3] 0.000246117
22 *122:43 gpio_dm1[3] 0.00023936
*RES
1 gpio_loopback_one[3] *139:9 5.2063 
2 *139:9 *139:11 2.01907 
3 *139:11 gpio_dm1[3] 2.71287 
4 *139:11 gpio_inp_dis[3] 0.752067 
5 *139:9 gpio_dm2[3] 0.752067 
*END

*D_NET *140 0.00911155
*CONN
*P gpio_dm2[4] O
*P gpio_inp_dis[4] O
*P gpio_dm1[4] O
*P gpio_loopback_one[4] I
*CAP
1 gpio_dm2[4] 0.000101766
2 gpio_inp_dis[4] 0.000109944
3 gpio_dm1[4] 0.000539859
4 gpio_loopback_one[4] 0.00147419
5 *140:11 0.00107641
6 *140:9 0.00200257
7 gpio_analog_en[4] gpio_dm1[4] 0
8 gpio_analog_pol[4] gpio_inp_dis[4] 2.5346e-05
9 gpio_analog_sel[4] gpio_dm2[4] 2.14672e-05
10 gpio_holdover[4] gpio_dm2[4] 2.02465e-05
11 gpio_slow_sel[4] gpio_dm1[4] 0.000429655
12 *127:9 *140:9 0.000395777
13 *127:21 *140:9 0.000829142
14 *127:23 *140:9 0.000268725
15 *127:23 *140:11 0.000233992
16 *127:25 gpio_dm1[4] 0.000184913
17 *127:25 *140:11 0.000906754
18 *127:27 gpio_dm1[4] 0.000245396
19 *127:29 gpio_dm1[4] 0.000245396
*RES
1 gpio_loopback_one[4] *140:9 5.2063 
2 *140:9 *140:11 2.01907 
3 *140:11 gpio_dm1[4] 2.71287 
4 *140:11 gpio_inp_dis[4] 0.752067 
5 *140:9 gpio_dm2[4] 0.752067 
*END

*D_NET *141 0.00869633
*CONN
*P gpio_inp_dis[5] O
*P gpio_dm1[5] O
*P gpio_dm2[5] O
*P gpio_loopback_one[5] I
*CAP
1 gpio_inp_dis[5] 9.27214e-05
2 gpio_dm1[5] 0.000662147
3 gpio_dm2[5] 4.95926e-05
4 gpio_loopback_one[5] 0.00178685
5 *141:27 0.00139651
6 *141:13 0.00247808
7 *141:13 gpio_out[5] 0
8 *141:27 gpio_out[5] 0
9 gpio_analog_en[5] gpio_dm1[5] 2.88116e-05
10 gpio_analog_pol[5] gpio_inp_dis[5] 2.01084e-05
11 gpio_analog_sel[5] gpio_dm2[5] 1.4168e-05
12 gpio_holdover[5] *141:13 1.33888e-06
13 gpio_holdover[5] *141:27 1.51498e-05
14 gpio_slow_sel[5] gpio_dm1[5] 0.000307061
15 *128:25 *141:13 0.00055739
16 *128:43 gpio_dm1[5] 0.000222245
17 *128:43 *141:27 0.000729441
18 *128:61 gpio_dm1[5] 0.000334718
*RES
1 gpio_loopback_one[5] *141:13 6.07047 
2 *141:13 gpio_dm2[5] 0.196967 
3 *141:13 *141:27 2.6736 
4 *141:27 gpio_dm1[5] 6.61668 
5 *141:27 gpio_inp_dis[5] 0.8515 
*END

*D_NET *142 0.00855939
*CONN
*P gpio_dm2[6] O
*P gpio_inp_dis[6] O
*P gpio_dm1[6] O
*P gpio_loopback_one[6] I
*CAP
1 gpio_dm2[6] 9.45211e-05
2 gpio_inp_dis[6] 0.000113073
3 gpio_dm1[6] 0.000884663
4 gpio_loopback_one[6] 0.00156628
5 *142:11 0.00152492
6 *142:9 0.00218798
7 gpio_dm2[6] gpio_out[6] 0
8 gpio_analog_en[6] gpio_dm1[6] 0
9 gpio_analog_pol[6] gpio_inp_dis[6] 1.47775e-05
10 gpio_analog_sel[6] gpio_dm2[6] 1.86516e-05
11 gpio_holdover[6] gpio_dm2[6] 1.86516e-05
12 *129:17 *142:9 0.000845366
13 *129:33 *142:9 0.000263841
14 *129:53 gpio_dm1[6] 0.000167444
15 *129:53 gpio_inp_dis[6] 1.15013e-05
16 *129:53 *142:11 0.000847717
*RES
1 gpio_loopback_one[6] *142:9 5.07963 
2 *142:9 *142:11 2.01907 
3 *142:11 gpio_dm1[6] 2.71287 
4 *142:11 gpio_inp_dis[6] 0.752067 
5 *142:9 gpio_dm2[6] 0.752067 
*END

*D_NET *143 0.0109239
*CONN
*P gpio_dm2[7] O
*P gpio_inp_dis[7] O
*P gpio_dm1[7] O
*P gpio_loopback_one[7] I
*CAP
1 gpio_dm2[7] 0.000114346
2 gpio_inp_dis[7] 0.000121028
3 gpio_dm1[7] 0.000287011
4 gpio_loopback_one[7] 0.000728192
5 *143:11 0.000565047
6 *143:9 0.000999546
7 gpio_dm1[7] gpio_out[7] 0.00111727
8 gpio_dm1[7] gpio_out[8] 0.00110536
9 *143:9 gpio_out[7] 0.000427981
10 *143:9 gpio_out[8] 0.00236824
11 *143:11 gpio_out[7] 0.00112882
12 *143:11 gpio_out[8] 0.00114075
13 gpio_analog_pol[7] gpio_inp_dis[7] 1.81358e-05
14 gpio_analog_sel[7] gpio_dm2[7] 1.59362e-05
15 gpio_holdover[7] gpio_dm2[7] 1.59362e-05
16 *130:21 *143:9 0.000770304
*RES
1 gpio_loopback_one[7] *143:9 4.95297 
2 *143:9 *143:11 2.01907 
3 *143:11 gpio_dm1[7] 2.71287 
4 *143:11 gpio_inp_dis[7] 0.752067 
5 *143:9 gpio_dm2[7] 0.752067 
*END

*D_NET *144 0.00930786
*CONN
*P gpio_dm2[8] O
*P gpio_inp_dis[8] O
*P gpio_dm1[8] O
*P gpio_loopback_one[8] I
*CAP
1 gpio_dm2[8] 0.000181443
2 gpio_inp_dis[8] 0.000149924
3 gpio_dm1[8] 0.000612696
4 gpio_loopback_one[8] 0.00102393
5 *144:11 0.00121951
6 *144:9 0.00166226
7 gpio_dm1[8] gpio_out[8] 0.000238396
8 gpio_inp_dis[8] gpio_out[9] 6.7041e-05
9 *144:9 gpio_out[9] 0.00230629
10 *144:11 gpio_out[8] 3.75261e-05
11 *144:11 gpio_out[9] 0.00105846
12 gpio_analog_en[8] gpio_dm1[8] 0
13 gpio_analog_pol[8] gpio_inp_dis[8] 2.01084e-05
14 gpio_holdover[8] gpio_dm2[8] 1.59362e-05
15 gpio_slow_sel[8] gpio_dm1[8] 0.00044875
16 *131:43 gpio_dm2[8] 1.2625e-05
17 *131:63 gpio_dm1[8] 0.000252975
*RES
1 gpio_loopback_one[8] *144:9 4.94347 
2 *144:9 *144:11 2.01907 
3 *144:11 gpio_dm1[8] 2.8294 
4 *144:11 gpio_inp_dis[8] 0.8686 
5 *144:9 gpio_dm2[8] 0.8686 
*END

*D_NET *145 0.0079824
*CONN
*P gpio_dm2[9] O
*P gpio_inp_dis[9] O
*P gpio_dm1[9] O
*P gpio_loopback_one[9] I
*CAP
1 gpio_dm2[9] 3.73022e-05
2 gpio_inp_dis[9] 4.39846e-05
3 gpio_dm1[9] 0.000723238
4 gpio_loopback_one[9] 0.00121458
5 *145:25 0.00143985
6 *145:21 0.00192452
7 *145:21 gpio_out[10] 0.000231469
8 gpio_analog_en[9] gpio_dm1[9] 0
9 gpio_analog_pol[9] gpio_inp_dis[9] 1.81358e-05
10 gpio_analog_sel[9] gpio_dm2[9] 1.59362e-05
11 gpio_analog_sel[9] *145:21 1.30296e-05
12 gpio_holdover[9] gpio_dm2[9] 1.59362e-05
13 *132:9 *145:21 0.000345137
14 *132:11 *145:21 0.00023936
15 *132:13 *145:21 0.00023936
16 *132:15 *145:21 0.000864419
17 *132:19 *145:21 0.000256913
18 *132:23 *145:25 0.000359229
*RES
1 gpio_loopback_one[9] *145:21 5.89567 
2 *145:21 *145:25 12.335 
3 *145:25 gpio_dm1[9] 12.0964 
4 *145:25 gpio_inp_dis[9] 0.6064 
5 *145:21 gpio_dm2[9] 0.1064 
*END

*D_NET *146 0.0171772
*CONN
*P gpio_in[0] I
*I *313:wb_clk_i I *D user_proj_timer
*CAP
1 gpio_in[0] 0.00858862
2 *313:wb_clk_i 0.00858862
*RES
1 gpio_in[0] *313:wb_clk_i 25.2649 
*END

*D_NET *157 0.021396
*CONN
*P gpio_in[1] I
*I *313:wb_rst_i I *D user_proj_timer
*CAP
1 gpio_in[1] 0.010698
2 *313:wb_rst_i 0.010698
*RES
1 gpio_in[1] *313:wb_rst_i 31.1435 
*END

*D_NET *234 0.00598259
*CONN
*P gpio_oeb[13] O
*P gpio_inp_dis[13] O
*P gpio_loopback_one[13] I
*CAP
1 gpio_oeb[13] 5.7525e-05
2 gpio_inp_dis[13] 0.0018947
3 gpio_loopback_one[13] 0.000263889
4 *234:11 0.00221612
5 gpio_analog_pol[13] gpio_inp_dis[13] 2.10284e-05
6 gpio_ib_mode_sel[13] gpio_oeb[13] 2.07817e-05
7 gpio_ib_mode_sel[13] *234:11 0.000569526
8 *93:33 gpio_inp_dis[13] 0.000107996
9 *93:45 gpio_inp_dis[13] 0.000253564
10 *93:61 gpio_inp_dis[13] 0.00023936
11 *93:65 gpio_inp_dis[13] 0.000338096
*RES
1 gpio_loopback_one[13] *234:11 7.3989 
2 *234:11 gpio_inp_dis[13] 5.96913 
3 *234:11 gpio_oeb[13] 0.135533 
*END

*D_NET *235 0.0067322
*CONN
*P gpio_oeb[14] O
*P gpio_inp_dis[14] O
*P gpio_loopback_one[14] I
*CAP
1 gpio_oeb[14] 0.000155004
2 gpio_inp_dis[14] 0.00167551
3 gpio_loopback_one[14] 0.000501434
4 *235:9 0.00233195
5 gpio_analog_pol[14] gpio_inp_dis[14] 2.10284e-05
6 gpio_ib_mode_sel[14] gpio_oeb[14] 2.39431e-05
7 *94:13 gpio_inp_dis[14] 0.000249635
8 *94:13 *235:9 0.000895973
9 *94:47 gpio_inp_dis[14] 0.000877722
*RES
1 gpio_loopback_one[14] *235:9 2.45827 
2 *235:9 gpio_inp_dis[14] 5.6262 
3 *235:9 gpio_oeb[14] 0.8686 
*END

*D_NET *236 0.00994945
*CONN
*P gpio_inp_dis[15] O
*P gpio_oeb[15] O
*P gpio_loopback_one[15] I
*CAP
1 gpio_inp_dis[15] 0.00176339
2 gpio_oeb[15] 0.000111087
3 gpio_loopback_one[15] 0.000855848
4 *236:9 0.00273033
5 gpio_analog_pol[15] gpio_inp_dis[15] 0.000904766
6 gpio_ib_mode_sel[15] gpio_inp_dis[15] 0.000219549
7 gpio_ib_mode_sel[15] *236:9 0.0025396
8 gpio_out[15] gpio_inp_dis[15] 0.000824883
*RES
1 gpio_loopback_one[15] *236:9 5.2963 
2 *236:9 gpio_oeb[15] 2.375 
3 *236:9 gpio_inp_dis[15] 6.72127 
*END

*D_NET *237 0.00759237
*CONN
*P gpio_inp_dis[16] O
*P gpio_oeb[16] O
*P gpio_loopback_one[16] I
*CAP
1 gpio_inp_dis[16] 0.00175776
2 gpio_oeb[16] 7.86681e-05
3 gpio_loopback_one[16] 0.000630585
4 *237:11 0.00246701
5 gpio_analog_pol[16] gpio_inp_dis[16] 0.000904766
6 gpio_ib_mode_sel[16] gpio_inp_dis[16] 0.000179877
7 gpio_ib_mode_sel[16] gpio_oeb[16] 0
8 gpio_ib_mode_sel[16] *237:11 0.000908585
9 gpio_out[16] gpio_inp_dis[16] 0.000665116
*RES
1 gpio_loopback_one[16] *237:11 4.79963 
2 *237:11 gpio_oeb[16] 1.8575 
3 *237:11 gpio_inp_dis[16] 7.18857 
*END

*D_NET *238 0.00757446
*CONN
*P gpio_inp_dis[17] O
*P gpio_oeb[17] O
*P gpio_loopback_one[17] I
*CAP
1 gpio_inp_dis[17] 0.0018341
2 gpio_oeb[17] 0.00239996
3 gpio_loopback_one[17] 0.000565854
4 gpio_analog_pol[17] gpio_inp_dis[17] 0.000579491
5 gpio_ib_mode_sel[17] gpio_inp_dis[17] 0.000185816
6 gpio_ib_mode_sel[17] gpio_oeb[17] 0.00146395
7 gpio_out[17] gpio_inp_dis[17] 0.000545291
*RES
1 gpio_loopback_one[17] gpio_oeb[17] 4.9656 
2 gpio_oeb[17] gpio_inp_dis[17] 7.9528 
*END

*D_NET *239 0.00791698
*CONN
*P gpio_inp_dis[18] O
*P gpio_oeb[18] O
*P gpio_loopback_one[18] I
*CAP
1 gpio_inp_dis[18] 0.00175713
2 gpio_oeb[18] 0.00234867
3 gpio_loopback_one[18] 0.000591532
4 gpio_ib_mode_sel[18] gpio_inp_dis[18] 0.000105932
5 gpio_ib_mode_sel[18] gpio_oeb[18] 0.00142401
6 *98:27 gpio_inp_dis[18] 0.000824883
7 *98:53 gpio_inp_dis[18] 0.000864825
*RES
1 gpio_loopback_one[18] gpio_oeb[18] 5.59733 
2 gpio_oeb[18] gpio_inp_dis[18] 8.52627 
*END

*D_NET *240 0.00986623
*CONN
*P gpio_inp_dis[19] O
*P gpio_oeb[19] O
*P gpio_loopback_one[19] I
*CAP
1 gpio_inp_dis[19] 0.0016059
2 gpio_oeb[19] 5.99008e-05
3 gpio_loopback_one[19] 0.000971533
4 *240:9 0.00263734
5 gpio_analog_pol[19] gpio_inp_dis[19] 0.00102459
6 gpio_ib_mode_sel[19] gpio_inp_dis[19] 0.000119825
7 gpio_ib_mode_sel[19] *240:9 0.00282197
8 gpio_out[19] gpio_inp_dis[19] 0.000625175
*RES
1 gpio_loopback_one[19] *240:9 5.53167 
2 *240:9 gpio_oeb[19] 1.5875 
3 *240:9 gpio_inp_dis[19] 5.9955 
*END

*D_NET *241 0.00958909
*CONN
*P gpio_inp_dis[20] O
*P gpio_oeb[20] O
*P gpio_loopback_one[20] I
*CAP
1 gpio_inp_dis[20] 0.0018076
2 gpio_oeb[20] 0.00266548
3 gpio_loopback_one[20] 0.000857876
4 gpio_analog_pol[20] gpio_inp_dis[20] 0.000824883
5 gpio_ib_mode_sel[20] gpio_inp_dis[20] 0.000105932
6 gpio_ib_mode_sel[20] gpio_oeb[20] 0.00250243
7 gpio_out[20] gpio_inp_dis[20] 0.000824883
*RES
1 gpio_loopback_one[20] gpio_oeb[20] 5.96303 
2 gpio_oeb[20] gpio_inp_dis[20] 9.03627 
*END

*D_NET *242 0.00960709
*CONN
*P gpio_inp_dis[21] O
*P gpio_oeb[21] O
*P gpio_loopback_one[21] I
*CAP
1 gpio_inp_dis[21] 0.00185348
2 gpio_oeb[21] 5.03993e-05
3 gpio_loopback_one[21] 0.000793344
4 *242:9 0.00269723
5 gpio_analog_pol[21] gpio_inp_dis[21] 0.000864825
6 gpio_ib_mode_sel[21] gpio_inp_dis[21] 0.000342804
7 gpio_ib_mode_sel[21] *242:9 0.00230273
8 *102:37 gpio_inp_dis[21] 0.00070228
*RES
1 gpio_loopback_one[21] *242:9 5.1192 
2 *242:9 gpio_oeb[21] 1.415 
3 *242:9 gpio_inp_dis[21] 6.1726 
*END

*D_NET *243 0.00938559
*CONN
*P gpio_inp_dis[22] O
*P gpio_oeb[22] O
*P gpio_loopback_one[22] I
*CAP
1 gpio_inp_dis[22] 0.00162707
2 gpio_oeb[22] 5.99008e-05
3 gpio_loopback_one[22] 0.000876759
4 *243:9 0.00256373
5 gpio_analog_pol[22] gpio_inp_dis[22] 0.000944708
6 gpio_out[22] gpio_inp_dis[22] 0.000665116
7 *103:11 gpio_inp_dis[22] 0.000225757
8 *103:11 *243:9 0.00242255
*RES
1 gpio_loopback_one[22] *243:9 5.4665 
2 *243:9 gpio_oeb[22] 1.5875 
3 *243:9 gpio_inp_dis[22] 5.9955 
*END

*D_NET *244 0.00863148
*CONN
*P gpio_inp_dis[23] O
*P gpio_oeb[23] O
*P gpio_loopback_one[23] I
*CAP
1 gpio_inp_dis[23] 0.00187724
2 gpio_oeb[23] 0.00266884
3 gpio_loopback_one[23] 0.000791605
4 gpio_analog_pol[23] gpio_inp_dis[23] 0.000579491
5 gpio_ib_mode_sel[23] gpio_inp_dis[23] 6.59906e-05
6 gpio_ib_mode_sel[23] gpio_oeb[23] 0.00210302
7 gpio_out[23] gpio_inp_dis[23] 0.000545291
*RES
1 gpio_loopback_one[23] gpio_oeb[23] 6.41537 
2 gpio_oeb[23] gpio_inp_dis[23] 9.323 
*END

*D_NET *245 0.00734911
*CONN
*P gpio_inp_dis[24] O
*P gpio_oeb[24] O
*P gpio_loopback_one[24] I
*CAP
1 gpio_inp_dis[24] 0.00171834
2 gpio_oeb[24] 9.02409e-05
3 gpio_loopback_one[24] 0.00100397
4 *245:13 0.00281255
5 gpio_analog_pol[24] gpio_inp_dis[24] 2.10208e-05
6 *105:21 gpio_inp_dis[24] 7.33938e-05
7 *105:21 gpio_oeb[24] 2.6249e-05
8 *105:21 *245:13 0.00122942
9 *105:41 gpio_inp_dis[24] 0.000263841
10 *105:77 gpio_inp_dis[24] 0.000110083
*RES
1 gpio_loopback_one[24] *245:13 4.8339 
2 *245:13 gpio_oeb[24] 0.752067 
3 *245:13 gpio_inp_dis[24] 5.50967 
*END

*D_NET *246 0.0087355
*CONN
*P gpio_inp_dis[25] O
*P gpio_oeb[25] O
*P gpio_loopback_one[25] I
*CAP
1 gpio_inp_dis[25] 0.00176913
2 gpio_oeb[25] 9.77434e-05
3 gpio_loopback_one[25] 0.00148828
4 *246:9 0.00335515
5 gpio_analog_pol[25] gpio_inp_dis[25] 2.69681e-05
6 gpio_ib_mode_sel[25] gpio_oeb[25] 1.32603e-05
7 *106:9 *246:9 0.00103347
8 *106:23 gpio_inp_dis[25] 0.000300769
9 *106:23 gpio_oeb[25] 1.56843e-05
10 *106:33 gpio_inp_dis[25] 0.000283243
11 *106:75 gpio_inp_dis[25] 0.000351799
*RES
1 gpio_loopback_one[25] *246:9 4.88457 
2 *246:9 gpio_oeb[25] 0.752067 
3 *246:9 gpio_inp_dis[25] 5.50967 
*END

*D_NET *247 0.0078949
*CONN
*P gpio_inp_dis[26] O
*P gpio_oeb[26] O
*P gpio_loopback_one[26] I
*CAP
1 gpio_inp_dis[26] 0.00153773
2 gpio_oeb[26] 6.87447e-05
3 gpio_loopback_one[26] 0.000946981
4 *247:9 0.00255346
5 gpio_analog_pol[26] gpio_inp_dis[26] 2.10208e-05
6 gpio_ib_mode_sel[26] gpio_oeb[26] 1.7889e-05
7 *107:19 gpio_inp_dis[26] 0.000171188
8 *107:19 *247:9 0.00135821
9 *107:41 gpio_inp_dis[26] 0.000253564
10 *107:65 gpio_inp_dis[26] 0.000246117
11 *107:75 gpio_inp_dis[26] 0.000220689
12 *107:85 gpio_inp_dis[26] 0.000499293
*RES
1 gpio_loopback_one[26] *247:9 4.63187 
2 *247:9 gpio_oeb[26] 0.721033 
3 *247:9 gpio_inp_dis[26] 9.89605 
*END

*D_NET *248 0.00901129
*CONN
*P gpio_inp_dis[27] O
*P gpio_oeb[27] O
*P gpio_loopback_one[27] I
*CAP
1 gpio_inp_dis[27] 0.00198355
2 gpio_oeb[27] 9.6083e-05
3 gpio_loopback_one[27] 0.000912635
4 *248:13 0.00299227
5 gpio_analog_pol[27] gpio_inp_dis[27] 2.10208e-05
6 gpio_ib_mode_sel[27] gpio_oeb[27] 8.61775e-06
7 *108:17 gpio_inp_dis[27] 0.000206353
8 *108:17 gpio_oeb[27] 6.84111e-06
9 *108:17 *248:13 0.00212233
10 *108:37 gpio_inp_dis[27] 0.000283534
11 *108:77 gpio_inp_dis[27] 0.000378056
*RES
1 gpio_loopback_one[27] *248:13 4.60907 
2 *248:13 gpio_oeb[27] 0.8097 
3 *248:13 gpio_inp_dis[27] 5.85863 
*END

*D_NET *249 0.00755202
*CONN
*P gpio_inp_dis[28] O
*P gpio_oeb[28] O
*P gpio_loopback_one[28] I
*CAP
1 gpio_inp_dis[28] 0.00165591
2 gpio_oeb[28] 9.11208e-05
3 gpio_loopback_one[28] 0.00094992
4 *249:13 0.00269695
5 gpio_analog_pol[28] gpio_inp_dis[28] 2.10208e-05
6 gpio_ib_mode_sel[28] gpio_oeb[28] 2.15929e-05
7 *109:19 gpio_inp_dis[28] 0.000187616
8 *109:19 *249:13 0.00113961
9 *109:39 gpio_inp_dis[28] 0.000263841
10 *109:83 gpio_inp_dis[28] 0.00017264
11 *109:93 gpio_inp_dis[28] 0.000351799
*RES
1 gpio_loopback_one[28] *249:13 4.58057 
2 *249:13 gpio_oeb[28] 0.752067 
3 *249:13 gpio_inp_dis[28] 5.50967 
*END

*D_NET *250 0.00767487
*CONN
*P gpio_inp_dis[29] O
*P gpio_oeb[29] O
*P gpio_loopback_one[29] I
*CAP
1 gpio_inp_dis[29] 0.00108897
2 gpio_oeb[29] 2.61753e-05
3 gpio_loopback_one[29] 0.000909002
4 *250:17 0.00202415
5 gpio_analog_pol[29] gpio_inp_dis[29] 2.10208e-05
6 *110:21 gpio_inp_dis[29] 9.31649e-05
7 *110:21 gpio_oeb[29] 3.00686e-05
8 *110:21 *250:17 0.00120245
9 *110:31 gpio_inp_dis[29] 0.000211941
10 *110:41 gpio_inp_dis[29] 0.000618661
11 *110:51 gpio_inp_dis[29] 0.000183305
12 *110:61 gpio_inp_dis[29] 0.000215769
13 *110:71 gpio_inp_dis[29] 0.000211941
14 *110:83 gpio_inp_dis[29] 0.000838253
*RES
1 gpio_loopback_one[29] *250:17 5.92905 
2 *250:17 gpio_oeb[29] 0.6064 
3 *250:17 gpio_inp_dis[29] 28.6564 
*END

*D_NET *251 0.00847743
*CONN
*P gpio_oeb[30] O
*P gpio_inp_dis[30] O
*P gpio_loopback_one[30] I
*CAP
1 gpio_oeb[30] 0.000122942
2 gpio_inp_dis[30] 0.00188564
3 gpio_loopback_one[30] 0.000993972
4 *251:13 0.00300256
5 gpio_analog_pol[30] gpio_inp_dis[30] 1.65723e-05
6 gpio_ib_mode_sel[30] gpio_oeb[30] 1.34054e-05
7 *112:15 gpio_inp_dis[30] 0.000487324
8 *112:15 *251:13 0.0011317
9 *112:37 gpio_inp_dis[30] 0.000283534
10 *112:65 gpio_inp_dis[30] 0.000138091
11 *112:85 gpio_inp_dis[30] 0.000401687
*RES
1 gpio_loopback_one[30] *251:13 4.8912 
2 *251:13 gpio_inp_dis[30] 6.48783 
3 *251:13 gpio_oeb[30] 0.421167 
*END

*D_NET *252 0.00816689
*CONN
*P gpio_inp_dis[31] O
*P gpio_oeb[31] O
*P gpio_loopback_one[31] I
*CAP
1 gpio_inp_dis[31] 0.0017945
2 gpio_oeb[31] 0.000109516
3 gpio_loopback_one[31] 0.000817761
4 *252:9 0.00272178
5 gpio_analog_pol[31] gpio_inp_dis[31] 2.10208e-05
6 gpio_ib_mode_sel[31] gpio_oeb[31] 1.31014e-05
7 *113:17 gpio_inp_dis[31] 0.000145781
8 *113:17 gpio_oeb[31] 1.39114e-05
9 *113:17 *252:9 0.00191388
10 *113:37 gpio_inp_dis[31] 0.000263841
11 *113:77 gpio_inp_dis[31] 0.000351799
12 *113:101 gpio_inp_dis[31] 0
*RES
1 gpio_loopback_one[31] *252:9 4.12457 
2 *252:9 gpio_oeb[31] 0.752067 
3 *252:9 gpio_inp_dis[31] 5.50967 
*END

*D_NET *253 0.00852038
*CONN
*P gpio_inp_dis[32] O
*P gpio_oeb[32] O
*P gpio_loopback_one[32] I
*CAP
1 gpio_inp_dis[32] 0.00167295
2 gpio_oeb[32] 7.83003e-05
3 gpio_loopback_one[32] 0.0010636
4 *253:13 0.00281484
5 gpio_analog_pol[32] gpio_inp_dis[32] 1.65723e-05
6 *114:17 gpio_inp_dis[32] 0.000191448
7 *114:17 gpio_oeb[32] 2.91467e-05
8 *114:17 *253:13 0.00171847
9 *114:31 gpio_inp_dis[32] 0.000146751
10 *114:45 gpio_inp_dis[32] 0.000386612
11 *114:77 gpio_inp_dis[32] 0.000401687
*RES
1 gpio_loopback_one[32] *253:13 5.11827 
2 *253:13 gpio_oeb[32] 0.8591 
3 *253:13 gpio_inp_dis[32] 5.55463 
*END

*D_NET *254 0.00798475
*CONN
*P gpio_inp_dis[33] O
*P gpio_oeb[33] O
*P gpio_loopback_one[33] I
*CAP
1 gpio_inp_dis[33] 0.00163477
2 gpio_oeb[33] 0.000232096
3 gpio_loopback_one[33] 0.00135148
4 *254:13 0.00321835
5 gpio_analog_pol[33] gpio_inp_dis[33] 2.39271e-05
6 gpio_ib_mode_sel[33] gpio_oeb[33] 4.08084e-05
7 *115:17 gpio_inp_dis[33] 1.21073e-05
8 *115:17 *254:13 0.000607125
9 *115:93 gpio_inp_dis[33] 0.000864092
*RES
1 gpio_loopback_one[33] *254:13 5.33613 
2 *254:13 gpio_oeb[33] 3.54535 
3 *254:13 gpio_inp_dis[33] 5.36717 
*END

*D_NET *255 0.00803723
*CONN
*P gpio_inp_dis[34] O
*P gpio_oeb[34] O
*P gpio_loopback_one[34] I
*CAP
1 gpio_inp_dis[34] 0.00179368
2 gpio_oeb[34] 0.00010039
3 gpio_loopback_one[34] 0.0010144
4 *255:9 0.00290846
5 gpio_analog_pol[34] gpio_inp_dis[34] 3.35195e-05
6 gpio_ib_mode_sel[34] gpio_oeb[34] 1.7119e-05
7 *116:21 gpio_inp_dis[34] 0.000180165
8 *116:21 gpio_oeb[34] 5.91233e-06
9 *116:21 *255:9 0.00134595
10 *116:41 gpio_inp_dis[34] 0.000263841
11 *116:81 gpio_inp_dis[34] 0.000373788
*RES
1 gpio_loopback_one[34] *255:9 4.7579 
2 *255:9 gpio_oeb[34] 0.752067 
3 *255:9 gpio_inp_dis[34] 5.54767 
*END

*D_NET *256 0.00831929
*CONN
*P gpio_inp_dis[35] O
*P gpio_oeb[35] O
*P gpio_loopback_one[35] I
*CAP
1 gpio_inp_dis[35] 0.00121577
2 gpio_oeb[35] 7.21191e-05
3 gpio_loopback_one[35] 0.0010628
4 *256:13 0.00235069
5 gpio_analog_pol[35] gpio_inp_dis[35] 2.02442e-05
6 *117:19 gpio_inp_dis[35] 0.000112641
7 *117:19 gpio_oeb[35] 1.97816e-05
8 *117:19 *256:13 0.00106391
9 *117:31 gpio_inp_dis[35] 0.000232203
10 *117:31 gpio_oeb[35] 3.96527e-06
11 *117:45 gpio_inp_dis[35] 0.000660846
12 *117:55 gpio_inp_dis[35] 0.000192059
13 *117:65 gpio_inp_dis[35] 0.000220689
14 *117:75 gpio_inp_dis[35] 0.000220689
15 *117:89 gpio_inp_dis[35] 0.000870884
*RES
1 gpio_loopback_one[35] *256:13 4.84973 
2 *256:13 gpio_oeb[35] 0.7375 
3 *256:13 gpio_inp_dis[35] 5.44317 
*END

*D_NET *257 0.00866902
*CONN
*P gpio_oeb[36] O
*P gpio_inp_dis[36] O
*P gpio_loopback_one[36] I
*CAP
1 gpio_oeb[36] 7.88716e-05
2 gpio_inp_dis[36] 0.00212515
3 gpio_loopback_one[36] 0.00123299
4 *257:9 0.00343701
5 gpio_analog_pol[36] gpio_inp_dis[36] 2.10208e-05
6 gpio_ib_mode_sel[36] gpio_oeb[36] 1.59213e-05
7 *118:19 gpio_inp_dis[36] 0.000281116
8 *118:19 *257:9 0.000838968
9 *118:41 gpio_inp_dis[36] 0.000283534
10 *118:81 gpio_inp_dis[36] 0.000354426
*RES
1 gpio_loopback_one[36] *257:9 22.1689 
2 *257:9 gpio_inp_dis[36] 7.16897 
3 *257:9 gpio_oeb[36] 1.24765 
*END

*D_NET *258 0.00896022
*CONN
*P gpio_inp_dis[37] O
*P gpio_oeb[37] O
*P gpio_loopback_one[37] I
*CAP
1 gpio_inp_dis[37] 0.00181145
2 gpio_oeb[37] 8.11587e-05
3 gpio_loopback_one[37] 0.000887863
4 *258:13 0.00278047
5 gpio_analog_pol[37] gpio_inp_dis[37] 4.1859e-05
6 gpio_ib_mode_sel[37] gpio_oeb[37] 9.40725e-06
7 *119:11 gpio_inp_dis[37] 0.000119384
8 *119:11 *258:13 0.00170255
9 *119:17 gpio_oeb[37] 1.71405e-05
10 *119:27 gpio_inp_dis[37] 0.000283534
11 *119:55 gpio_inp_dis[37] 0.00025452
12 *119:67 gpio_inp_dis[37] 0.000970891
*RES
1 gpio_loopback_one[37] *258:13 4.41907 
2 *258:13 gpio_oeb[37] 0.8629 
3 *258:13 gpio_inp_dis[37] 6.1639 
*END

*D_NET *259 0.006706
*CONN
*P gpio_oeb[38] O
*P gpio_inp_dis[38] O
*P gpio_loopback_one[38] I
*CAP
1 gpio_oeb[38] 3.48881e-05
2 gpio_inp_dis[38] 0.00156644
3 gpio_loopback_one[38] 0.000221022
4 *259:9 0.00182235
5 gpio_analog_pol[38] gpio_inp_dis[38] 0
6 gpio_ib_mode_sel[38] gpio_oeb[38] 0
7 *120:9 gpio_inp_dis[38] 0.000276236
8 *120:9 *259:9 0.000547848
9 *120:11 gpio_inp_dis[38] 0.000276236
10 *120:17 gpio_inp_dis[38] 0.000819334
11 *120:51 gpio_inp_dis[38] 0.00114164
*RES
1 gpio_loopback_one[38] *259:9 1.87063 
2 *259:9 gpio_inp_dis[38] 5.8201 
3 *259:9 gpio_oeb[38] 1.0625 
*END

*D_NET *260 0.00667196
*CONN
*P gpio_oeb[39] O
*P gpio_inp_dis[39] O
*P gpio_loopback_one[39] I
*CAP
1 gpio_oeb[39] 3.48881e-05
2 gpio_inp_dis[39] 0.00124908
3 gpio_loopback_one[39] 0.000210507
4 *260:9 0.00149447
5 gpio_analog_pol[39] gpio_inp_dis[39] 0
6 gpio_ib_mode_sel[39] gpio_oeb[39] 0
7 *121:9 gpio_inp_dis[39] 0.000198474
8 *121:9 *260:9 0.000545308
9 *121:11 gpio_inp_dis[39] 0.000272873
10 *121:13 gpio_inp_dis[39] 0.000792115
11 *121:15 gpio_inp_dis[39] 0.000232932
12 *121:17 gpio_inp_dis[39] 0.000272873
13 *121:19 gpio_inp_dis[39] 0.000272873
14 *121:21 gpio_inp_dis[39] 0.00109556
*RES
1 gpio_loopback_one[39] *260:9 1.86683 
2 *260:9 gpio_inp_dis[39] 6.27863 
3 *260:9 gpio_oeb[39] 1.0625 
*END

*D_NET *261 0.00533718
*CONN
*P gpio_oeb[40] O
*P gpio_inp_dis[40] O
*P gpio_loopback_one[40] I
*CAP
1 gpio_oeb[40] 0.000100241
2 gpio_inp_dis[40] 0.00117477
3 gpio_loopback_one[40] 0.000291637
4 *261:13 0.00156665
5 gpio_analog_pol[40] gpio_inp_dis[40] 0
6 gpio_ib_mode_sel[40] gpio_oeb[40] 0
7 *123:9 gpio_inp_dis[40] 0.000137812
8 *123:9 *261:13 0.000337977
9 *123:11 gpio_inp_dis[40] 0.000164547
10 *123:13 gpio_inp_dis[40] 0.000470134
11 *123:15 gpio_inp_dis[40] 0.00014104
12 *123:17 gpio_inp_dis[40] 0.000164547
13 *123:19 gpio_inp_dis[40] 0.000164547
14 *123:21 gpio_inp_dis[40] 0.000623285
*RES
1 gpio_loopback_one[40] *261:13 3.25123 
2 *261:13 gpio_inp_dis[40] 7.27857 
3 *261:13 gpio_oeb[40] 2.6375 
*END

*D_NET *262 0.00526458
*CONN
*P gpio_oeb[41] O
*P gpio_inp_dis[41] O
*P gpio_loopback_one[41] I
*CAP
1 gpio_oeb[41] 9.50428e-05
2 gpio_inp_dis[41] 0.00120136
3 gpio_loopback_one[41] 0.000269203
4 *262:17 0.00156561
5 gpio_analog_pol[41] gpio_inp_dis[41] 0
6 gpio_ib_mode_sel[41] gpio_oeb[41] 0
7 *124:9 gpio_inp_dis[41] 0.000184826
8 *124:9 *262:17 0.000220443
9 *124:11 gpio_inp_dis[41] 0.000164547
10 *124:13 gpio_inp_dis[41] 0.000470134
11 *124:15 gpio_inp_dis[41] 0.00014104
12 *124:17 gpio_inp_dis[41] 0.000164547
13 *124:19 gpio_inp_dis[41] 0.000164547
14 *124:21 gpio_inp_dis[41] 0.000623285
*RES
1 gpio_loopback_one[41] *262:17 4.0849 
2 *262:17 gpio_inp_dis[41] 7.3951 
3 *262:17 gpio_oeb[41] 2.6375 
*END

*D_NET *263 0.00631236
*CONN
*P gpio_oeb[42] O
*P gpio_inp_dis[42] O
*P gpio_loopback_one[42] I
*CAP
1 gpio_oeb[42] 3.48881e-05
2 gpio_inp_dis[42] 0.00135637
3 gpio_loopback_one[42] 0.000227475
4 *263:9 0.00161873
5 gpio_analog_pol[42] gpio_inp_dis[42] 0
6 gpio_ib_mode_sel[42] gpio_oeb[42] 0
7 *125:9 gpio_inp_dis[42] 0.000272873
8 *125:9 *263:9 0.000540355
9 *125:11 gpio_inp_dis[42] 0.000272873
10 *125:13 gpio_inp_dis[42] 0.000792115
11 *125:15 gpio_inp_dis[42] 0.000232932
12 *125:17 gpio_inp_dis[42] 0.000272873
13 *125:19 gpio_inp_dis[42] 0.00019983
14 *125:21 gpio_inp_dis[42] 0.000482496
15 *125:25 gpio_inp_dis[42] 8.54539e-06
*RES
1 gpio_loopback_one[42] *263:9 1.8643 
2 *263:9 gpio_inp_dis[42] 6.27863 
3 *263:9 gpio_oeb[42] 1.0625 
*END

*D_NET *264 0.00567387
*CONN
*P gpio_oeb[43] O
*P gpio_inp_dis[43] O
*P gpio_loopback_one[43] I
*CAP
1 gpio_oeb[43] 9.43864e-05
2 gpio_inp_dis[43] 0.00133597
3 gpio_loopback_one[43] 0.00025369
4 *264:13 0.00168405
5 gpio_analog_pol[43] gpio_inp_dis[43] 0
6 *126:19 gpio_inp_dis[43] 0.00030287
7 *126:19 gpio_oeb[43] 0
8 *126:19 *264:13 0.000439359
9 *126:39 gpio_inp_dis[43] 0.000470134
10 *126:41 gpio_inp_dis[43] 0.00014104
11 *126:43 gpio_inp_dis[43] 0.000164547
12 *126:45 gpio_inp_dis[43] 0.000164547
13 *126:47 gpio_inp_dis[43] 0.000623285
*RES
1 gpio_loopback_one[43] *264:13 3.40643 
2 *264:13 gpio_inp_dis[43] 7.3951 
3 *264:13 gpio_oeb[43] 2.6375 
*END

*D_NET *265 0.0304653
*CONN
*P gpio_out[10] O
*I *313:io_out[8] O *D user_proj_timer
*CAP
1 gpio_out[10] 0.0132862
2 *313:io_out[8] 0.0132862
3 gpio_dm1[10] gpio_out[10] 0.000263463
4 gpio_holdover[10] gpio_out[10] 1.57861e-05
5 gpio_slow_sel[10] gpio_out[10] 0.000263841
6 *90:41 gpio_out[10] 0.000125705
7 *90:45 gpio_out[10] 0.00109562
8 *90:47 gpio_out[10] 0.000232405
9 *90:51 gpio_out[10] 0.000258027
10 *132:9 gpio_out[10] 0.000972847
11 *135:23 gpio_out[10] 0.000433724
12 *145:21 gpio_out[10] 0.000231469
*RES
1 *313:io_out[8] gpio_out[10] 41.8114 
*END

*D_NET *266 0.0259713
*CONN
*P gpio_out[11] O
*I *313:io_out[9] O *D user_proj_timer
*CAP
1 gpio_out[11] 0.0117256
2 *313:io_out[9] 0.0117256
3 gpio_analog_sel[11] gpio_out[11] 1.11211e-05
4 gpio_holdover[11] gpio_out[11] 2.10284e-05
5 gpio_slow_sel[11] gpio_out[11] 0.00109861
6 *91:19 gpio_out[11] 0.000910677
7 *91:21 gpio_out[11] 0.00023936
8 *91:23 gpio_out[11] 0.00023936
*RES
1 *313:io_out[9] gpio_out[11] 44.3638 
*END

*D_NET *267 0.0228411
*CONN
*P gpio_out[12] O
*I *313:io_out[10] O *D user_proj_timer
*CAP
1 gpio_out[12] 0.00977565
2 *313:io_out[10] 0.00977565
3 gpio_analog_pol[12] gpio_out[12] 4.12258e-05
4 gpio_holdover[12] gpio_out[12] 2.41112e-05
5 gpio_slow_sel[12] gpio_out[12] 0.00112565
6 *92:21 gpio_out[12] 0.000164031
7 *92:23 gpio_out[12] 0.000440133
8 *92:25 gpio_out[12] 0.00109493
9 *92:27 gpio_out[12] 0.000191458
10 *92:29 gpio_out[12] 0.000208241
*RES
1 *313:io_out[10] gpio_out[12] 30.6115 
*END

*D_NET *268 0.0199728
*CONN
*P gpio_out[2] O
*I *313:io_out[0] O *D user_proj_timer
*CAP
1 gpio_out[2] 0.00997813
2 *313:io_out[0] 0.00997813
3 gpio_dm2[2] gpio_out[2] 0
4 gpio_holdover[2] gpio_out[2] 1.65703e-05
*RES
1 *313:io_out[0] gpio_out[2] 29.4335 
*END

*D_NET *269 0.0240777
*CONN
*P gpio_out[3] O
*I *313:io_out[1] O *D user_proj_timer
*CAP
1 gpio_out[3] 0.0120287
2 *313:io_out[1] 0.0120287
3 gpio_holdover[3] gpio_out[3] 2.02539e-05
*RES
1 *313:io_out[1] gpio_out[3] 35.2424 
*END

*D_NET *270 0.0275749
*CONN
*P gpio_out[4] O
*I *313:io_out[2] O *D user_proj_timer
*CAP
1 gpio_out[4] 0.0137743
2 *313:io_out[2] 0.0137743
3 gpio_holdover[4] gpio_out[4] 2.62587e-05
*RES
1 *313:io_out[2] gpio_out[4] 40.8512 
*END

*D_NET *271 0.0327377
*CONN
*P gpio_out[5] O
*I *313:io_out[3] O *D user_proj_timer
*CAP
1 gpio_out[5] 0.0159005
2 *313:io_out[3] 0.0159005
3 gpio_out[5] *272:16 0.000915727
4 gpio_holdover[5] gpio_out[5] 2.10284e-05
5 *141:13 gpio_out[5] 0
6 *141:27 gpio_out[5] 0
*RES
1 *313:io_out[3] gpio_out[5] 46.859 
*END

*D_NET *272 0.0358794
*CONN
*P gpio_out[6] O
*I *313:io_out[4] O *D user_proj_timer
*CAP
1 gpio_out[6] 0.00540527
2 *313:io_out[4] 0.012066
3 *272:16 0.0174713
4 gpio_dm2[6] gpio_out[6] 0
5 gpio_holdover[6] gpio_out[6] 2.10284e-05
6 gpio_out[5] *272:16 0.000915727
*RES
1 *313:io_out[4] *272:16 37.2697 
2 *272:16 gpio_out[6] 14.6724 
*END

*D_NET *273 0.0418111
*CONN
*P gpio_out[7] O
*I *313:io_out[5] O *D user_proj_timer
*CAP
1 gpio_out[7] 0.0133074
2 *313:io_out[5] 0.00531216
3 *273:7 0.0186196
4 gpio_out[7] gpio_out[8] 0.00187978
5 gpio_dm1[7] gpio_out[7] 0.00111727
6 gpio_holdover[7] gpio_out[7] 1.81358e-05
7 *143:9 gpio_out[7] 0.000427981
8 *143:11 gpio_out[7] 0.00112882
*RES
1 *313:io_out[5] *273:7 14.9235 
2 *273:7 gpio_out[7] 43.4609 
*END

*D_NET *274 0.0440496
*CONN
*P gpio_out[8] O
*I *313:io_out[6] O *D user_proj_timer
*CAP
1 gpio_out[8] 0.0102618
2 *313:io_out[6] 0.00537271
3 *274:7 0.0156345
4 gpio_out[8] gpio_out[9] 0.00142659
5 gpio_dm1[7] gpio_out[8] 0.00110536
6 gpio_dm1[8] gpio_out[8] 0.000238396
7 gpio_holdover[8] gpio_out[8] 2.06877e-05
8 gpio_out[7] gpio_out[8] 0.00187978
9 gpio_slow_sel[7] gpio_out[8] 0.000935794
10 gpio_slow_sel[8] gpio_out[8] 0.00109861
11 *130:21 gpio_out[8] 0.000526898
12 *130:27 gpio_out[8] 0.000253564
13 *130:31 gpio_out[8] 0.000359229
14 *131:43 gpio_out[8] 0.00112535
15 *131:63 gpio_out[8] 0.000263855
16 *143:9 gpio_out[8] 0.00236824
17 *143:11 gpio_out[8] 0.00114075
18 *144:11 gpio_out[8] 3.75261e-05
*RES
1 *313:io_out[6] *274:7 15.0401 
2 *274:7 gpio_out[8] 37.6292 
*END

*D_NET *275 0.0366072
*CONN
*P gpio_out[9] O
*I *313:io_out[7] O *D user_proj_timer
*CAP
1 gpio_out[9] 0.0143157
2 *313:io_out[7] 0.0143157
3 gpio_holdover[9] gpio_out[9] 4.18658e-05
4 gpio_inp_dis[8] gpio_out[9] 6.7041e-05
5 gpio_out[8] gpio_out[9] 0.00142659
6 gpio_slow_sel[9] gpio_out[9] 0.000569115
7 *131:17 gpio_out[9] 0.00059365
8 *131:23 gpio_out[9] 0.000263841
9 *132:15 gpio_out[9] 0.000193987
10 *132:19 gpio_out[9] 0.000486462
11 *132:23 gpio_out[9] 0.000675663
12 *132:27 gpio_out[9] 0.000146369
13 *132:31 gpio_out[9] 0.000146369
14 *144:9 gpio_out[9] 0.00230629
15 *144:11 gpio_out[9] 0.00105846
*RES
1 *313:io_out[7] gpio_out[9] 47.3695 
*END
